 NOTE: Siesta V5 introduces some new defaults for basis-set generation
 NOTE: which might lead to slightly different numerical results.
 NOTE: Please see the manual for full details and compatibility measures.

reinit: Reading from file optimization.fdf

reinit: -----------------------------------------------------------------------
reinit: System Name:
reinit: -----------------------------------------------------------------------
reinit: System Label: AuRel
reinit: -----------------------------------------------------------------------

initatom: Reading input for the pseudopotentials and atomic orbitals ----------
Species number:   1 Atomic number:   79 Label: Au

Ground state valence configuration (from tables):   6s01  6p00  5d10  5f00

---- Processing specs for species: Au
Reading pseudopotential information in PSML from:
  Au.psml
PSML file version: 1.1
GGA--PBE XC_GGA_X_PBE--XC_GGA_C_PBE pb
PSML uuid: fa497b30-be45-11e7-41fb-494093d7a025
Semicore shell(s) with  8 electrons included in the valence for Au

---- Pseudopotential check for Au

Pseudized shells:
5s( 2.00) rc: 1.46
5p( 6.00) rc: 1.56
5d(10.00) rc: 1.56
5f( 0.00) rc: 1.60
Valence configuration for ps generation: 5s:5p:5d:6s: Total charge:  19.000000
Semicore shell(s): 5s 5p
Fallback to non-perturbative polarization scheme for Au
Please see the manual if this is not desired in principle
For Au, standard SIESTA heuristics set lmxkb to 3
 (one more than the basis l, including polarization orbitals).
Use PS.lmax or PS.KBprojectors blocks to override.

<basis_specs>
Au                   Z=  79    Mass=  196.97        Charge= 0.17977+309
Lmxo=2 Lmxkb= 3    BasisType=split      Semic=T
L=0  Nsemic=1  Cnfigmx=6
          i=1  nzeta=1  polorb=0  (5s)  (semicore shell)
            splnorm:   0.15000
               vcte:    40.000
               rinn:  -0.90000
               qcoe:    0.0000
               qyuk:    0.0000
               qwid:   0.10000E-01
                rcs:    0.0000
            lambdas:    1.0000
          i=2  nzeta=2  polorb=0  (6s)  (to be polarized non-perturbatively)
            splnorm:   0.15000
               vcte:    40.000
               rinn:  -0.90000
               qcoe:    0.0000
               qyuk:    0.0000
               qwid:   0.10000E-01
                rcs:    0.0000      0.0000
            lambdas:    1.0000      1.0000
L=1  Nsemic=1  Cnfigmx=6
          i=1  nzeta=1  polorb=0  (5p)  (semicore shell)
            splnorm:   0.15000
               vcte:    40.000
               rinn:  -0.90000
               qcoe:    0.0000
               qyuk:    0.0000
               qwid:   0.10000E-01
                rcs:    0.0000
            lambdas:    1.0000
          i=2  nzeta=1  polorb=0  (6p)  (non-perturbative polarization shell)
            splnorm:   0.15000
               vcte:    40.000
               rinn:  -0.90000
               qcoe:    0.0000
               qyuk:   0.49407-323
               qwid:   0.44466-322
                rcs:    0.0000
            lambdas:    1.0000
L=2  Nsemic=0  Cnfigmx=5
          i=1  nzeta=2  polorb=0  (5d)
            splnorm:   0.15000
               vcte:    40.000
               rinn:  -0.90000
               qcoe:    0.0000
               qyuk:    0.0000
               qwid:   0.10000E-01
                rcs:    0.0000      0.0000
            lambdas:    1.0000      1.0000
L=0  Nkbl=2  erefs: 0.17977+309 0.17977+309
L=1  Nkbl=2  erefs: 0.17977+309 0.17977+309
L=2  Nkbl=1  erefs: 0.17977+309
L=3  Nkbl=1  erefs: 0.17977+309
</basis_specs>

Using PAO.SplitTailNorm
atom: Called for Au                    (Z =  79)
Maximum radius (at nrval) set to   50.00000 8518

read_vps: Pseudopotential generation method:
read_vps: ONCVPSP-3.Hamann's oncvpsp
Valence charge in pseudo generation:   19.00000

read_vps: Pseudopotential includes a core correction:
read_vps: Pseudo-core for xc-correction

xc_check: Exchange-correlation functional:
xc_check: GGA Perdew, Burke & Ernzerhof 1996
Got Vlocal (oncv-fit) from psml data
Choosing vlocal chloc cutoff:  5.037181
qtot up to nchloc:   18.99999407
atom: Maximum radius for chlocal:    5.03718
atom: Maximum radius for r*vlocal+2*Zval:    5.03718
Reading KB projs from Au psml data
Using scalar-relativistic projectors in PSML file

PSML: Kleinman-Bylander projectors:
   l= 0   rc=  1.474132   Ekb= 18.815768
   l= 0   rc=  1.474132   Ekb= -0.390506
   l= 1   rc=  1.583336   Ekb=  4.781134
   l= 1   rc=  1.583336   Ekb= -3.699696
   l= 2   rc=  1.583336   Ekb=  2.968821
   l= 2   rc=  1.583336   Ekb=  0.574456
   l= 3   rc=  1.622038   Ekb=  2.312314

PSML: Total number of  Kleinman-Bylander projectors:  25
atom: -------------------------------------------------------------------------

atom: SANKEY-TYPE ORBITALS:
atom: Selected multiple-zeta basis: split

SPLIT: Orbitals with angular momentum L= 0

SPLIT: Basis orbitals for state 5s

SPLIT: PAO cut-off radius determined from an
SPLIT: energy shift=  0.000735 Ry
Split based on tail norm

   izeta = 1
                 lambda =    1.000000
                     rc =    2.925359
                 energy =   -7.964134
                kinetic =    2.893592
    potential(screened) =  -10.857725
       potential(ionic) =  -37.457701

SPLIT: Basis orbitals for state 6s

[...]

   izeta = 2
                 rmatch =    4.927355
              splitnorm =    0.150000
                 energy =   -0.413505
                kinetic =    2.478661
    potential(screened) =   -2.892166
       potential(ionic) =  -20.911581

[...]

SPLIT: Basis orbitals for state 5p

[...]

SPLIT: Basis orbitals for state 6p
SPLIT: Non-perturbative polarization orbs for state 6s
SPLIT: rc(1st zeta) (re)set to: 8.0332 (expansion factor: 1.0000)
Split based on tail norm

[...]

SPLIT: Orbitals with angular momentum L= 2

SPLIT: Basis orbitals for state 5d

SPLIT: PAO cut-off radius determined from an
SPLIT: energy shift=  0.000735 Ry
Split based on tail norm

   izeta = 1
                 lambda =    1.000000
                     rc =    6.393405
                 energy =   -0.504592
                kinetic =    4.935315
    potential(screened) =   -5.439906
       potential(ionic) =  -26.571989

   izeta = 2
                 rmatch =    3.462344
              splitnorm =    0.150000
                 energy =   -0.397189
                kinetic =    6.101362
    potential(screened) =   -6.498551
       potential(ionic) =  -29.253309
atom: Total number of Sankey-type orbitals: 19

atm_pop: Valence configuration (for local Pseudopot. screening):
 5s( 2.00) 6s( 1.00)
 5p( 6.00) 6p( 0.00)
 5d(10.00)
Vna: chval, zval:   19.00000  19.00000

Vna:  Cut-off radius for the neutral-atom potential:   8.033223
comcore: Pseudo-core radius Rcore=  2.583037

atom: _________________________________________________________________________

prinput: Basis input

PAO.BasisType split

%block ChemicalSpeciesLabel
    1   79 Au                      # Species index, atomic number, species label
%endblock ChemicalSpeciesLabel

%block PAO.Basis                 # Define Basis set
# WARNING: This information might be incomplete!
Au                    5                    # Species label, number of l-shells
 n=5   0   1                         # n, l, Nzeta
   2.925
   1.000
 n=6   0   2                         # n, l, Nzeta
   8.033      4.927
   1.000      1.000
 n=5   1   1                         # n, l, Nzeta
   3.518
   1.000
 n=6   1   1                         # n, l, Nzeta
   8.033
   1.000
 n=5   2   2                         # n, l, Nzeta
   6.393      3.462
   1.000      1.000
%endblock PAO.Basis

prinput: ----------------------------------------------------------------------

Dumping basis to NetCDF file Au.ion.nc
coor:   Atomic-coordinates input format  =     Cartesian coordinates
coor:                                          (in Angstroms)

siesta: Atomic coordinates (Bohr) and species
siesta:      0.00000   0.00000   0.00000  1        1
siesta:      0.00000   3.94129   3.94129  1        2
siesta:      3.94129   0.00000   3.94129  1        3
siesta:      3.94129   3.94129   0.00000  1        4
siesta:      7.12671   0.00000   0.00000  1        5

siesta: System type = molecule

initatomlists: Number of atoms, orbitals, and projectors:      5    95   125

coxmol: Writing XMOL coordinates into file AuRel.xyz

siesta: ******************** Simulation parameters ****************************
siesta:
siesta: The following are some of the parameters of the simulation.
siesta: A complete list of the parameters used, including default values,
siesta: can be found in file out.fdf
siesta:
redata: Spin configuration                          = none
redata: Number of spin components                   = 1
redata: Time-Reversal Symmetry                      = T
redata: Spin spiral                                 = F
redata: Long output                                 =   F
redata: Number of Atomic Species                    =        1
redata: Charge density info will appear in .RHO file
redata: Write Mulliken charges (when)               = none
redata: Write Mulliken Pop.                         = NO
redata: Write Hirshfeld charges (when)              = none
redata: Write Voronoi charges (when)                = none
redata: Write spin charge (when)                    = none
redata: Matel table size (NRTAB)                    =     1024
redata: Mesh Cutoff                                 =   300.0000 Ry
redata: Net charge of the system                    =     0.0000 |e|
redata: Min. number of SCF Iter                     =        0
redata: Max. number of SCF Iter                     =     1000
redata: SCF convergence failure will abort job
redata: SCF mix quantity                            = Hamiltonian
redata: Mix DM or H after convergence               =   F
redata: Recompute H after scf cycle                 =   F
redata: Mix DM in first SCF step                    =   T
redata: Write Pulay info on disk                    =   F
redata: New DM Occupancy tolerance                  = 0.000000000001
redata: No kicks to SCF
redata: DM Mixing Weight for Kicks                  =     0.5000
redata: Require Harris convergence for SCF          =   F
redata: Harris energy tolerance for SCF             =     0.000100 eV
redata: Require DM convergence for SCF              =   T
redata: DM tolerance for SCF                        =     0.000100
redata: Require EDM convergence for SCF             =   F
redata: EDM tolerance for SCF                       =     0.001000 eV
redata: Require H convergence for SCF               =   T
redata: Hamiltonian tolerance for SCF               =     0.001000 eV
redata: Require (free) Energy convergence for SCF   =   F
redata: (free) Energy tolerance for SCF             =     0.000100 eV
redata: Using DFT-D3 dispersion                     =   F
redata: Using Saved Data (generic)                  =   F
redata: Use continuation files for DM               =   T
redata: Neglect nonoverlap interactions             =   F
redata: Method of Calculation                       = Diagonalization
redata: Electronic Temperature                      =   290.1130 K
redata: Fix the spin of the system                  =   F
[...]
mix.SCF:    SVD condition                        = 0.1000E-07
redata: Save all siesta data in one NC              =   F
redata: ***********************************************************************

%block SCF.Mixers
  Pulay
%endblock SCF.Mixers

%block SCF.Mixer.Pulay
  # Mixing method
  method pulay
  variant stable

  # Mixing options
  weight 0.2500
  weight.linear 0.2500
  history 2
%endblock SCF.Mixer.Pulay

DM_history_depth set to one: no extrapolation allowed by default for geometry relaxation
Size of DM history Fstack: 1
Total number of electrons:    95.000000
Total ionic charge:    95.000000

siesta: k-grid: Number of k-points = 1
siesta: k-point is Gamma-only

diag: Algorithm                                     = D&C
diag: Used triangular part                          = Lower
diag: Absolute tolerance                            =  0.100E-15
diag: Orthogonalization factor                      =  0.100E-05

ts: **************************************************************
ts: Save H and S matrices                           =    F
ts: Save DM and EDM matrices                        =    F
ts: Only save the overlap matrix S                  =    F
ts: **************************************************************

************************ Begin: TS CHECKS AND WARNINGS ************************
************************ End: TS CHECKS AND WARNINGS **************************

                        Begin CG opt. move =      0

outcell: Unit cell vectors (Ang):
       20.000000    0.000000    0.000000
        0.000000   20.000000    0.000000
        0.000000    0.000000   20.000000

outcell: Cell vector modules (Ang)   :   20.000000   20.000000   20.000000
outcell: Cell angles (23,13,12) (deg):     90.0000     90.0000     90.0000
outcell: Cell volume (Ang**3)        :   8000.0000
<dSpData1D:S at geom step 0
  <sparsity:sparsity for geom step 0
    nrows_g=95 nrows=95 sparsity=.9619 nnzs=8681, refcount: 7>
  <dData1D:(new from dSpData1D) n=8681, refcount: 1>
refcount: 1>
new_DM -- step:     1
Initializing Density Matrix...

Attempting to read DM from file... Succeeded...
DM from file:
<dSpData2D:IO-DM: AuRel.DM
  <sparsity:IO-DM: AuRel.DM
    nrows_g=95 nrows=95 sparsity=.8675 nnzs=7829, refcount: 1>
  <dData2D:(new from dSpData2D) n=7829 m=1, refcount: 1>
refcount: 1>
DM to be used:
<dSpData2D:Re-structured SpM
  <sparsity:sparsity for geom step 0
    nrows_g=95 nrows=95 sparsity=.9619 nnzs=8681, refcount: 8>
  <dData2D:(new in restruct) n=8681 m=1, refcount: 1>
refcount: 1>
Note: For starting DM, Qtot, Tr[D*S] =         95.00000000         94.88366093
No. of atoms with KB's overlaping orbs in proc 0. Max # of overlaps:       5      68

InitMesh: MESH = 216 x 216 x 216 = 10077696
InitMesh: Mesh cutoff (required, used) =   300.000   322.366 Ry
New grid distribution [1]: sub = 2

stepf: Fermi-Dirac step function

siesta: Program's energy decomposition (eV):
siesta: Ebs     =     -3503.410687
siesta: Eions   =     25389.061704
siesta: Ena     =      2561.263210
siesta: Ekin    =      5721.130765
siesta: Enl     =       342.276124
siesta: Eso     =         0.000000
siesta: Edftu   =         0.000000
siesta: DEna    =       129.070698
siesta: DUscf   =        16.838374
siesta: DUext   =         0.000000
siesta: Ex      =     -3319.376986
siesta: Ec      =      -199.522323
siesta: Exc     =     -3518.899308
siesta: EbV     =         0.000000
siesta: eta*DQ  =         0.000000
siesta: Emadel  =         0.000000
siesta: Emeta   =         0.000000
siesta: Emolmec =         0.000000
siesta: Ekinion =         0.000000
siesta: Eharris =    -20097.426087
siesta: Etot    =    -20137.381841
siesta: FreeEng =    -20137.416501

SCF Convergence by DM+H criterion
max |DM_out - DM_in|         :     0.0000886518
max |H_out - H_in|      (eV) :     0.0002196939
SCF cycle converged after 33 iterations

Using DM_out to compute the final energy and forces
No. of atoms with KB's overlaping orbs in proc 0. Max # of overlaps:       5      68

siesta: E_KS(eV) =           -20152.7112

siesta: E_KS - E_eggbox =    -20152.7112

siesta: Atomic forces (eV/Ang):
   Tot   -0.000313    0.000222    0.000222
   Max    0.783092
   Res    0.551716    sqrt( Sum f_i^2 / 3N )
   Max    0.783092    constrained

Stress tensor Voigt[x,y,z,yz,xz,xy] (kbar):        0.40        0.54        0.54        0.11        0.00        0.00
(Free)E + p*V (eV/cell)   -20155.2509
Target enthalpy (eV/cell)   -20152.7674

[...]

outcell: Cell vector modules (Ang)   :   20.000000   20.000000   20.000000
outcell: Cell angles (23,13,12) (deg):     90.0000     90.0000     90.0000
outcell: Cell volume (Ang**3)        :   8000.0000
<dSpData1D:S at geom step 1
  <sparsity:sparsity for geom step 1
    nrows_g=95 nrows=95 sparsity=.9619 nnzs=8681, refcount: 7>
  <dData1D:(new from dSpData1D) n=8681, refcount: 1>
refcount: 1>
new_DM -- step:     2
Re-using DM from previous geometries...
Number of DMs in history: 1
 DM extrapolation coefficients:
1   1.00000
New DM after history re-use:
<dSpData2D:SpM extrapolated using coords
  <sparsity:sparsity for geom step 1
    nrows_g=95 nrows=95 sparsity=.9619 nnzs=8681, refcount: 9>
  <dData2D:(temp array for extrapolation) n=8681 m=1, refcount: 1>
refcount: 1>
No. of atoms with KB's overlaping orbs in proc 0. Max # of overlaps:       5      68

[...]

        iscf     Eharris(eV)        E_KS(eV)     FreeEng(eV)     dDmax    Ef(eV) dHmax(eV)
   scf:    1   -20152.617658   -20152.747447   -20152.795431  0.619678 -4.644220  1.220865
   scf:    2   -20144.944373   -20150.476009   -20150.510667  1.364050 -4.966142  5.645607
   scf:    3   -20153.774459   -20152.618310   -20152.658632  0.443228 -4.661751  1.841501
   scf:    4   -20150.959816   -20152.462072   -20152.496889  1.402934 -4.692083  2.609674
   scf:    5   -20153.032774   -20152.812674   -20152.863098  0.348508 -4.635491  0.946454
   scf:    6   -20151.960508   -20152.670761   -20152.714246  0.995529 -4.649924  1.600698
   scf:    7   -20152.915715   -20152.893400   -20152.949634  0.585872 -4.632599  0.073018
   scf:    8   -20152.893596   -20152.893881   -20152.950071  0.037482 -4.632750  0.020997
   scf:    9   -20152.893904   -20152.893912   -20152.950120  0.008039 -4.633132  0.002604
   scf:   10   -20152.893913   -20152.893913   -20152.950121  0.000370 -4.633586  0.001782
   scf:   11   -20152.893915   -20152.893914   -20152.950122  0.000604 -4.633993  0.001875
   scf:   12   -20152.893904   -20152.893910   -20152.950121  0.001644 -4.634365  0.003673
   scf:   13   -20152.893916   -20152.893914   -20152.950122  0.001480 -4.634318  0.000972
   scf:   14   -20152.893913   -20152.893913   -20152.950122  0.000161 -4.634503  0.000935
   scf:   15   -20152.893916   -20152.893915   -20152.950122  0.000867 -4.634654  0.001879
   scf:   16   -20152.893911   -20152.893913   -20152.950122  0.000919 -4.634681  0.000863
   scf:   17   -20152.893914   -20152.893914   -20152.950122  0.000256 -4.634765  0.000460
   scf:   18   -20152.893913   -20152.893913   -20152.950122  0.000084 -4.634879  0.000497

[...]

cgvc: Finished line minimization    1.  Mean atomic displacement =    0.1484

[...]

                        Begin CG opt. move =     15

outcell: Unit cell vectors (Ang):
       20.000000    0.000000    0.000000
        0.000000   20.000000    0.000000
        0.000000    0.000000   20.000000

outcell: Cell vector modules (Ang)   :   20.000000   20.000000   20.000000
outcell: Cell angles (23,13,12) (deg):     90.0000     90.0000     90.0000
outcell: Cell volume (Ang**3)        :   8000.0000
<dSpData1D:S at geom step 15
  <sparsity:sparsity for geom step 15
    nrows_g=95 nrows=95 sparsity=.9608 nnzs=8671, refcount: 7>
  <dData1D:(new from dSpData1D) n=8671, refcount: 1>
refcount: 1>
new_DM -- step:    16
Re-using DM from previous geometries...
Number of DMs in history: 1
 DM extrapolation coefficients:
1   1.00000
New DM after history re-use:
<dSpData2D:SpM extrapolated using coords
  <sparsity:sparsity for geom step 15
    nrows_g=95 nrows=95 sparsity=.9608 nnzs=8671, refcount: 9>
  <dData2D:(temp array for extrapolation) n=8671 m=1, refcount: 1>
refcount: 1>
No. of atoms with KB's overlaping orbs in proc 0. Max # of overlaps:       5      66

InitMesh: MESH = 216 x 216 x 216 = 10077696
InitMesh: Mesh cutoff (required, used) =   300.000   322.366 Ry
New grid distribution [1]: sub = 2

        iscf     Eharris(eV)        E_KS(eV)     FreeEng(eV)     dDmax    Ef(eV) dHmax(eV)
   scf:    1   -20152.961881   -20152.982144   -20153.036853  0.008681 -4.522985  0.022768
   scf:    2   -20152.951449   -20152.973191   -20153.025037  0.096195 -4.526539  0.300211
   scf:    3   -20152.980533   -20152.982370   -20153.036922  0.089413 -4.523644  0.003888
   scf:    4   -20152.982365   -20152.982368   -20153.036923  0.000170 -4.523815  0.001660
   scf:    5   -20152.982373   -20152.982370   -20153.036923  0.000119 -4.523933  0.000573
   scf:    6   -20152.982347   -20152.982359   -20153.036923  0.000516 -4.523938  0.001305
   scf:    7   -20152.982377   -20152.982368   -20153.036923  0.000401 -4.523941  0.000246
   scf:    8   -20152.982367   -20152.982368   -20153.036923  0.000029 -4.523945  0.000143

SCF Convergence by DM+H criterion
max |DM_out - DM_in|         :     0.0000293534
max |H_out - H_in|      (eV) :     0.0001428541
SCF cycle converged after 8 iterations

Using DM_out to compute the final energy and forces
No. of atoms with KB's overlaping orbs in proc 0. Max # of overlaps:       5      66

siesta: E_KS(eV) =           -20152.9824

siesta: Atomic forces (eV/Ang):
   Tot   -0.001126    0.000820    0.000823
   Max    0.174538
   Res    0.109148    sqrt( Sum f_i^2 / 3N )
   Max    0.174538    constrained

Stress tensor Voigt[x,y,z,yz,xz,xy] (kbar):        0.04       -0.03       -0.03       -0.05       -0.05       -0.05
(Free)E + p*V (eV/cell)   -20152.9909
Target enthalpy (eV/cell)   -20153.0369

cgvc: Finished line minimization    6.  Mean atomic displacement =    0.1245

outcoor: Final (unrelaxed) atomic coordinates (Ang):
   -0.09370070    0.14936985    0.14938022   1       1  Au
    0.01792789    2.00931935    2.00931032   1       2  Au
    2.04142101   -0.00940472    1.97636224   1       3  Au
    2.04142335    1.97637073   -0.00939664   1       4  Au
    3.93446407    0.04715549    0.04715463   1       5  Au

coxmol: Writing XMOL coordinates into file AuRel.xyz

siesta: Program's energy decomposition (eV):
siesta: Ebs     =     -3335.557080
siesta: Eions   =     25389.061704
siesta: Ena     =      2559.397998
siesta: Ekin    =      5795.499224
siesta: Enl     =       341.208060
siesta: Eso     =         0.000000
siesta: Edftu   =         0.000000
siesta: DEna    =        74.708564
siesta: DUscf   =         1.696359
siesta: DUext   =         0.000000
siesta: Ex      =     -3335.881340
siesta: Ec      =      -200.549528
siesta: Exc     =     -3536.430868
siesta: EbV     =         0.000000
siesta: eta*DQ  =         0.000000
siesta: Emadel  =         0.000000
siesta: Emeta   =         0.000000
siesta: Emolmec =         0.000000
siesta: Ekinion =         0.000000
siesta: Eharris =    -20152.982367
siesta: Etot    =    -20152.982368
siesta: FreeEng =    -20153.036923

siesta: Final energy (eV):
siesta:  Band Struct. =   -3335.557080
siesta:       Kinetic =    5795.499224
siesta:       Hartree =   24130.883577
siesta:         Edftu =       0.000000
siesta:       Eso     =       0.000000
siesta:    Ext. field =       0.000000
siesta:         Exch. =   -3335.881340
siesta:         Corr. =    -200.549528
siesta:     Bulk bias =       0.000000
siesta:   Exch.-corr. =   -3536.430868
siesta:  Ion-electron =  -54861.012096
siesta:       Ion-ion =    8318.077795
siesta:       Ekinion =       0.000000
siesta: D3 dispersion =       0.000000
siesta:         Total =  -20152.982368
siesta:         Fermi =      -4.523945

siesta: Atomic forces (eV/Ang):
siesta:      1   -0.070271   -0.174538   -0.174479
siesta:      2    0.089373    0.166554    0.166503
siesta:      3    0.039468   -0.024796   -0.075555
siesta:      4    0.039487   -0.075516   -0.024750
siesta:      5   -0.099183    0.109116    0.109104
siesta: ----------------------------------------
siesta:    Tot   -0.001126    0.000820    0.000823

siesta: Stress tensor (static) (eV/Ang**3):
siesta:     0.000026   -0.000030   -0.000030
siesta:    -0.000030   -0.000022   -0.000033
siesta:    -0.000030   -0.000033   -0.000022

siesta: Cell volume =       8000.000000 Ang**3

siesta: Pressure (static):
siesta:                Solid            Molecule  Units
siesta:           0.00000006          0.00000001  Ry/Bohr**3
siesta:           0.00000575          0.00000122  eV/Ang**3
siesta:           0.00921348          0.00194919  kBar
(Free)E+ p_basis*V_orbitals  =      -20147.117661
(Free)Eharris+ p_basis*V_orbitals  =      -20147.117660

siesta: Electric dipole (a.u.)  =   -0.323190   -0.024860   -0.024842
siesta: Electric dipole (Debye) =   -0.821467   -0.063188   -0.063142

cite: Please indicate the Siesta version in published work: 5.2.2
cite: This calculation has made use of features in the following articles
cite: which we encourage you to cite in published work.
cite: (Please see "AuRel.bib" for a BibTeX file.)
        Primary SIESTA paper
          DOI: www.doi.org/10.1088/0953-8984/14/11/302
        PSML pseudopotential format
          DOI: www.doi.org/10.1016/j.cpc.2018.02.011

Routine            Calls   Time/call    Tot.time        %
siesta                 1    1020.871    1020.871   100.00
Setup                  1       0.146       0.146     0.01
bands                  1       0.000       0.000     0.00
KSV_init               1       0.000       0.000     0.00
IterGeom              16      63.794    1020.705    99.98
geom_init             16       7.364     117.830    11.54
state_init            16       0.027       0.434     0.04
hsparse               16       0.001       0.009     0.00
overlap               16       0.025       0.399     0.04
Setup_H0              16       3.692      59.077     5.79
naefs                 32       0.000       0.002     0.00
dnaefs                32       0.000       0.001     0.00
MolMec                32       0.000       0.000     0.00
kinefsm               32       0.015       0.464     0.05
nlefsm                32       0.056       1.786     0.17
DHSCF_Init            16       3.574      57.183     5.60
DHSCF1                16       0.137       2.195     0.22
InitMesh              16       0.137       2.194     0.21
INITMESH              16       0.000       0.000     0.00
DHSCF2                16       3.437      54.988     5.39
REMESH                16       0.166       2.652     0.26
REORD                742       0.026      19.293     1.89
PHION                 16       1.605      25.676     2.52
COMM_BSC            1052       0.021      22.383     2.19
POISON               267       1.280     341.739    33.48
fft                  534       0.522     278.624    27.29
setup_H              235       3.666     861.469    84.39
DHSCF                251       3.820     958.814    93.92
DHSCF3               251       3.663     919.376    90.06
rhoofd               251       0.347      87.059     8.53
XC                   251       1.435     360.082    35.27
GXC-CellXC           251       1.340     336.285    32.94
gridxc@cellXC        251       1.340     336.280    32.94
vmat                 251       0.240      60.286     5.91
IterSCF              219       3.674     804.668    78.82
compute_dm           219       0.006       1.360     0.13
diagon               219       0.006       1.348     0.13
r-eigvec             219       0.003       0.723     0.07
r-buildHS            219       0.000       0.014     0.00
rdiag                219       0.003       0.709     0.07
rdiag1               219       0.000       0.024     0.00
rdiag2               219       0.000       0.068     0.01
rdiag3               219       0.002       0.457     0.04
rdiag4               219       0.001       0.151     0.01
r-buildD             219       0.003       0.604     0.06
MIXER                203       0.000       0.025     0.00
PostSCF               16       6.132      98.117     9.61
FINAL_HF              16       6.132      98.116     9.61
DHSCF4                16       2.465      39.437     3.86
dfscf                 16       1.902      30.429     2.98
overfsm               16       0.005       0.078     0.01
writeHSX              16       0.001       0.009     0.00
state_analysis        16       0.001       0.014     0.00
siesta_move           16       0.004       0.065     0.01
Analysis               1       0.006       0.006     0.00
optical                1       0.000       0.000     0.00

>> End of run:   1-JUL-2025  21:11:44
Job completed
Job completed