 NOTE: Siesta V5 introduces some new defaults for basis-set generation
 NOTE: which might lead to slightly different numerical results.
 NOTE: Please see the manual for full details and compatibility measures.

reinit: Reading from file optimization.fdf

reinit: -----------------------------------------------------------------------
reinit: System Name:
reinit: -----------------------------------------------------------------------
reinit: System Label: AuRel
reinit: -----------------------------------------------------------------------

initatom: Reading input for the pseudopotentials and atomic orbitals ----------
Species number:   1 Atomic number:   79 Label: Au

Ground state valence configuration (from tables):   6s01  6p00  5d10  5f00

---- Processing specs for species: Au
Reading pseudopotential information in PSML from:
  Au.psml
PSML file version: 1.1
GGA--PBE XC_GGA_X_PBE--XC_GGA_C_PBE pb
PSML uuid: fa497b30-be45-11e7-41fb-494093d7a025
Semicore shell(s) with  8 electrons included in the valence for Au

---- Pseudopotential check for Au

Pseudized shells:
5s( 2.00) rc: 1.46
5p( 6.00) rc: 1.56
5d(10.00) rc: 1.56
5f( 0.00) rc: 1.60
Valence configuration for ps generation: 5s:5p:5d:6s: Total charge:  19.000000
Semicore shell(s): 5s 5p
Fallback to non-perturbative polarization scheme for Au
Please see the manual if this is not desired in principle
For Au, standard SIESTA heuristics set lmxkb to 3
 (one more than the basis l, including polarization orbitals).
Use PS.lmax or PS.KBprojectors blocks to override.

<basis_specs>
Au                   Z=  79    Mass=  196.97        Charge= 0.17977+309
Lmxo=2 Lmxkb= 3    BasisType=split      Semic=T
L=0  Nsemic=1  Cnfigmx=6
          i=1  nzeta=1  polorb=0  (5s)  (semicore shell)
            splnorm:   0.15000
               vcte:    40.000
               rinn:  -0.90000
               qcoe:    0.0000
               qyuk:    0.0000
               qwid:   0.10000E-01
                rcs:    0.0000
            lambdas:    1.0000
          i=2  nzeta=2  polorb=0  (6s)  (to be polarized non-perturbatively)
            splnorm:   0.15000
               vcte:    40.000
               rinn:  -0.90000
               qcoe:    0.0000
               qyuk:    0.0000
               qwid:   0.10000E-01
                rcs:    0.0000      0.0000
            lambdas:    1.0000      1.0000
L=1  Nsemic=1  Cnfigmx=6
          i=1  nzeta=1  polorb=0  (5p)  (semicore shell)
            splnorm:   0.15000
               vcte:    40.000
               rinn:  -0.90000
               qcoe:    0.0000
               qyuk:    0.0000
               qwid:   0.10000E-01
                rcs:    0.0000
            lambdas:    1.0000
          i=2  nzeta=1  polorb=0  (6p)  (non-perturbative polarization shell)
            splnorm:   0.15000
               vcte:    40.000
               rinn:  -0.90000
               qcoe:    0.0000
               qyuk:   0.49407-323
               qwid:   0.44466-322
                rcs:    0.0000
            lambdas:    1.0000
L=2  Nsemic=0  Cnfigmx=5
          i=1  nzeta=2  polorb=0  (5d)
            splnorm:   0.15000
               vcte:    40.000
               rinn:  -0.90000
               qcoe:    0.0000
               qyuk:    0.0000
               qwid:   0.10000E-01
                rcs:    0.0000      0.0000
            lambdas:    1.0000      1.0000
L=0  Nkbl=2  erefs: 0.17977+309 0.17977+309
L=1  Nkbl=2  erefs: 0.17977+309 0.17977+309
L=2  Nkbl=1  erefs: 0.17977+309
L=3  Nkbl=1  erefs: 0.17977+309
</basis_specs>

Using PAO.SplitTailNorm
atom: Called for Au                    (Z =  79)
Maximum radius (at nrval) set to   50.00000 8518

read_vps: Pseudopotential generation method:
read_vps: ONCVPSP-3.Hamann's oncvpsp
Valence charge in pseudo generation:   19.00000

read_vps: Pseudopotential includes a core correction:
read_vps: Pseudo-core for xc-correction

xc_check: Exchange-correlation functional:
xc_check: GGA Perdew, Burke & Ernzerhof 1996
Got Vlocal (oncv-fit) from psml data
Choosing vlocal chloc cutoff:  5.037181
qtot up to nchloc:   18.99999407
atom: Maximum radius for chlocal:    5.03718
atom: Maximum radius for r*vlocal+2*Zval:    5.03718
Reading KB projs from Au psml data
Using scalar-relativistic projectors in PSML file

PSML: Kleinman-Bylander projectors:
   l= 0   rc=  1.474132   Ekb= 18.815768
   l= 0   rc=  1.474132   Ekb= -0.390506
   l= 1   rc=  1.583336   Ekb=  4.781134
   l= 1   rc=  1.583336   Ekb= -3.699696
   l= 2   rc=  1.583336   Ekb=  2.968821
   l= 2   rc=  1.583336   Ekb=  0.574456
   l= 3   rc=  1.622038   Ekb=  2.312314

PSML: Total number of  Kleinman-Bylander projectors:  25
atom: -------------------------------------------------------------------------

atom: SANKEY-TYPE ORBITALS:
atom: Selected multiple-zeta basis: split

SPLIT: Orbitals with angular momentum L= 0

SPLIT: Basis orbitals for state 5s

SPLIT: PAO cut-off radius determined from an
SPLIT: energy shift=  0.000735 Ry
Split based on tail norm

   izeta = 1
                 lambda =    1.000000
                     rc =    2.925359
                 energy =   -7.964134
                kinetic =    2.893592
    potential(screened) =  -10.857725
       potential(ionic) =  -37.457701

SPLIT: Basis orbitals for state 6s

[...]

   izeta = 2
                 rmatch =    4.927355
              splitnorm =    0.150000
                 energy =   -0.413505
                kinetic =    2.478661
    potential(screened) =   -2.892166
       potential(ionic) =  -20.911581

[...]

SPLIT: Basis orbitals for state 5p

[...]

SPLIT: Basis orbitals for state 6p
SPLIT: Non-perturbative polarization orbs for state 6s
SPLIT: rc(1st zeta) (re)set to: 8.0332 (expansion factor: 1.0000)
Split based on tail norm

[...]

SPLIT: Orbitals with angular momentum L= 2

SPLIT: Basis orbitals for state 5d

SPLIT: PAO cut-off radius determined from an
SPLIT: energy shift=  0.000735 Ry
Split based on tail norm

   izeta = 1
                 lambda =    1.000000
                     rc =    6.393405
                 energy =   -0.504592
                kinetic =    4.935315
    potential(screened) =   -5.439906
       potential(ionic) =  -26.571989

   izeta = 2
                 rmatch =    3.462344
              splitnorm =    0.150000
                 energy =   -0.397189
                kinetic =    6.101362
    potential(screened) =   -6.498551
       potential(ionic) =  -29.253309
atom: Total number of Sankey-type orbitals: 19

atm_pop: Valence configuration (for local Pseudopot. screening):
 5s( 2.00) 6s( 1.00)
 5p( 6.00) 6p( 0.00)
 5d(10.00)
Vna: chval, zval:   19.00000  19.00000

Vna:  Cut-off radius for the neutral-atom potential:   8.033223
comcore: Pseudo-core radius Rcore=  2.583037

atom: _________________________________________________________________________

prinput: Basis input

PAO.BasisType split

%block ChemicalSpeciesLabel
    1   79 Au                      # Species index, atomic number, species label
%endblock ChemicalSpeciesLabel

%block PAO.Basis                 # Define Basis set
# WARNING: This information might be incomplete!
Au                    5                    # Species label, number of l-shells
 n=5   0   1                         # n, l, Nzeta
   2.925
   1.000
 n=6   0   2                         # n, l, Nzeta
   8.033      4.927
   1.000      1.000
 n=5   1   1                         # n, l, Nzeta
   3.518
   1.000
 n=6   1   1                         # n, l, Nzeta
   8.033
   1.000
 n=5   2   2                         # n, l, Nzeta
   6.393      3.462
   1.000      1.000
%endblock PAO.Basis

prinput: ----------------------------------------------------------------------

Dumping basis to NetCDF file Au.ion.nc
coor:   Atomic-coordinates input format  =     Cartesian coordinates
coor:                                          (in Angstroms)

siesta: Atomic coordinates (Bohr) and species
siesta:      0.00000   0.00000   0.00000  1        1
siesta:      0.00000   3.94129   3.94129  1        2
siesta:      3.94129   0.00000   3.94129  1        3
siesta:      3.94129   3.94129   0.00000  1        4
siesta:      0.00000   7.88260   0.00000  1        5
siesta:      7.88260   0.00000   0.00000  1        6

siesta: System type = molecule

initatomlists: Number of atoms, orbitals, and projectors:      6   114   150

coxmol: Writing XMOL coordinates into file AuRel.xyz

siesta: ******************** Simulation parameters ****************************
siesta:
siesta: The following are some of the parameters of the simulation.
siesta: A complete list of the parameters used, including default values,
siesta: can be found in file out.fdf
siesta:
redata: Spin configuration                          = none
redata: Number of spin components                   = 1
redata: Time-Reversal Symmetry                      = T
redata: Spin spiral                                 = F
redata: Long output                                 =   F
redata: Number of Atomic Species                    =        1
redata: Charge density info will appear in .RHO file
redata: Write Mulliken charges (when)               = none
redata: Write Mulliken Pop.                         = NO
redata: Write Hirshfeld charges (when)              = none
redata: Write Voronoi charges (when)                = none
redata: Write spin charge (when)                    = none
redata: Matel table size (NRTAB)                    =     1024
redata: Mesh Cutoff                                 =   300.0000 Ry
redata: Net charge of the system                    =     0.0000 |e|
redata: Min. number of SCF Iter                     =        0
redata: Max. number of SCF Iter                     =     1000
redata: SCF convergence failure will abort job
redata: SCF mix quantity                            = Hamiltonian
redata: Mix DM or H after convergence               =   F
redata: Recompute H after scf cycle                 =   F
redata: Mix DM in first SCF step                    =   T
redata: Write Pulay info on disk                    =   F
redata: New DM Occupancy tolerance                  = 0.000000000001
redata: No kicks to SCF
redata: DM Mixing Weight for Kicks                  =     0.5000
redata: Require Harris convergence for SCF          =   F
redata: Harris energy tolerance for SCF             =     0.000100 eV
redata: Require DM convergence for SCF              =   T
redata: DM tolerance for SCF                        =     0.000100
redata: Require EDM convergence for SCF             =   F
redata: EDM tolerance for SCF                       =     0.001000 eV
redata: Require H convergence for SCF               =   T
redata: Hamiltonian tolerance for SCF               =     0.001000 eV
redata: Require (free) Energy convergence for SCF   =   F
redata: (free) Energy tolerance for SCF             =     0.000100 eV
redata: Using DFT-D3 dispersion                     =   F
redata: Using Saved Data (generic)                  =   F
redata: Use continuation files for DM               =   T
redata: Neglect nonoverlap interactions             =   F
redata: Method of Calculation                       = Diagonalization
redata: Electronic Temperature                      =   290.1130 K
[...]
redata: Number of TDED substeps                     =        3
redata: Dynamics option                             = CG coord. optimization
redata: Variable cell                               =   F
redata: Use continuation files for CG               =   F
redata: Max atomic displ per move                   =     0.1058 Ang
redata: Maximum number of optimization moves        =       15
redata: Force tolerance                             =     0.0200 eV/Ang
mix.SCF: Pulay mixing                            = Pulay
mix.SCF:    Variant                              = stable
mix.SCF:    History steps                        = 2
mix.SCF:    Linear mixing weight                 =     0.250000
mix.SCF:    Mixing weight                        =     0.250000
mix.SCF:    SVD condition                        = 0.1000E-07
redata: Save all siesta data in one NC              =   F
redata: ***********************************************************************

%block SCF.Mixers
  Pulay
%endblock SCF.Mixers

%block SCF.Mixer.Pulay
  # Mixing method
  method pulay
  variant stable

  # Mixing options
  weight 0.2500
  weight.linear 0.2500
  history 2
%endblock SCF.Mixer.Pulay

DM_history_depth set to one: no extrapolation allowed by default for geometry relaxation
Size of DM history Fstack: 1
Total number of electrons:   114.000000
Total ionic charge:   114.000000

siesta: k-grid: Number of k-points = 1
siesta: k-point is Gamma-only

diag: Algorithm                                     = D&C
diag: Used triangular part                          = Lower
diag: Absolute tolerance                            =  0.100E-15
diag: Orthogonalization factor                      =  0.100E-05

ts: **************************************************************
ts: Save H and S matrices                           =    F
ts: Save DM and EDM matrices                        =    F
ts: Only save the overlap matrix S                  =    F
ts: **************************************************************

************************ Begin: TS CHECKS AND WARNINGS ************************
************************ End: TS CHECKS AND WARNINGS **************************

                        Begin CG opt. move =      0

outcell: Unit cell vectors (Ang):
       20.000000    0.000000    0.000000
        0.000000   20.000000    0.000000
        0.000000    0.000000   20.000000

outcell: Cell vector modules (Ang)   :   20.000000   20.000000   20.000000
outcell: Cell angles (23,13,12) (deg):     90.0000     90.0000     90.0000
outcell: Cell volume (Ang**3)        :   8000.0000
<dSpData1D:S at geom step 0
  <sparsity:sparsity for geom step 0
    nrows_g=114 nrows=114 sparsity=.9106 nnzs=11834, refcount: 7>
  <dData1D:(new from dSpData1D) n=11834, refcount: 1>
refcount: 1>
new_DM -- step:     1
Initializing Density Matrix...

Attempting to read DM from file... Succeeded...
DM from file:
<dSpData2D:IO-DM: AuRel.DM
  <sparsity:IO-DM: AuRel.DM
    nrows_g=114 nrows=114 sparsity=.8744 nnzs=11364, refcount: 1>
  <dData2D:(new from dSpData2D) n=11364 m=1, refcount: 1>
refcount: 1>
DM to be used:
<dSpData2D:Re-structured SpM
  <sparsity:sparsity for geom step 0
    nrows_g=114 nrows=114 sparsity=.9106 nnzs=11834, refcount: 8>
  <dData2D:(new in restruct) n=11834 m=1, refcount: 1>
refcount: 1>
Note: For starting DM, Qtot, Tr[D*S] =        114.00000000        113.27649215
No. of atoms with KB's overlaping orbs in proc 0. Max # of overlaps:       6      69

InitMesh: MESH = 216 x 216 x 216 = 10077696
InitMesh: Mesh cutoff (required, used) =   300.000   322.366 Ry
New grid distribution [1]: sub = 2

stepf: Fermi-Dirac step function

siesta: Program's energy decomposition (eV):
siesta: Ebs     =     -4552.111152
siesta: Eions   =     30466.874044
siesta: Ena     =      3074.953141
siesta: Ekin    =      6698.494424
siesta: Enl     =       411.768981
siesta: Eso     =         0.000000
siesta: Edftu   =         0.000000
siesta: DEna    =       282.241019
siesta: DUscf   =       115.526255
siesta: DUext   =         0.000000
siesta: Ex      =     -3947.895183
siesta: Ec      =      -237.842821
siesta: Exc     =     -4185.738004
siesta: EbV     =         0.000000
siesta: eta*DQ  =         0.000000
siesta: Emadel  =         0.000000
siesta: Emeta   =         0.000000
siesta: Emolmec =         0.000000
siesta: Ekinion =         0.000000
siesta: Eharris =    -23812.107151
siesta: Etot    =    -24069.628228
siesta: FreeEng =    -24069.646365

SCF Convergence by DM+H criterion
max |DM_out - DM_in|         :     0.0000490654
max |H_out - H_in|      (eV) :     0.0001942486
SCF cycle converged after 19 iterations

Using DM_out to compute the final energy and forces
No. of atoms with KB's overlaping orbs in proc 0. Max # of overlaps:       6      69

siesta: E_KS(eV) =           -24184.0260

siesta: E_KS - E_eggbox =    -24184.0260

siesta: Atomic forces (eV/Ang):
   Tot    0.001332    0.001331    0.000763
   Max    1.397731
   Res    0.803399    sqrt( Sum f_i^2 / 3N )
   Max    1.397731    constrained

Stress tensor Voigt[x,y,z,yz,xz,xy] (kbar):        1.21        1.21        1.17       -0.04       -0.04       -0.75
(Free)E + p*V (eV/cell)   -24190.0059
Target enthalpy (eV/cell)   -24184.0260

[...]

outcell: Cell vector modules (Ang)   :   20.000000   20.000000   20.000000
outcell: Cell angles (23,13,12) (deg):     90.0000     90.0000     90.0000
outcell: Cell volume (Ang**3)        :   8000.0000
<dSpData1D:S at geom step 1
  <sparsity:sparsity for geom step 1
    nrows_g=114 nrows=114 sparsity=.9112 nnzs=11842, refcount: 7>
  <dData1D:(new from dSpData1D) n=11842, refcount: 1>
refcount: 1>
new_DM -- step:     2
Re-using DM from previous geometries...
Number of DMs in history: 1
 DM extrapolation coefficients:
1   1.00000
New DM after history re-use:
<dSpData2D:SpM extrapolated using coords
  <sparsity:sparsity for geom step 1
    nrows_g=114 nrows=114 sparsity=.9112 nnzs=11842, refcount: 9>
  <dData2D:(temp array for extrapolation) n=11842 m=1, refcount: 1>
refcount: 1>
No. of atoms with KB's overlaping orbs in proc 0. Max # of overlaps:       6      69

[...]

        iscf     Eharris(eV)        E_KS(eV)     FreeEng(eV)     dDmax    Ef(eV) dHmax(eV)
   scf:    1   -24185.252973   -24184.353347   -24184.353360  0.099031 -5.010495  0.433100
   scf:    2   -24184.259860   -24184.327771   -24184.327785  0.100930 -4.909604  1.100574
   scf:    3   -24184.365790   -24184.358449   -24184.358462  0.074981 -4.979995  0.026838
   scf:    4   -24184.358514   -24184.358487   -24184.358500  0.001223 -4.978276  0.007716
   scf:    5   -24184.358500   -24184.358494   -24184.358507  0.000433 -4.978113  0.002688
   scf:    6   -24184.358498   -24184.358496   -24184.358509  0.000316 -4.978280  0.001538
   scf:    7   -24184.358498   -24184.358497   -24184.358510  0.000508 -4.978624  0.000414
   scf:    8   -24184.358497   -24184.358497   -24184.358510  0.000057 -4.978692  0.000206

[...]

cgvc: Finished line minimization    1.  Mean atomic displacement =    0.2138

[...]

                        Begin CG opt. move =     15

outcell: Unit cell vectors (Ang):
       20.000000    0.000000    0.000000
        0.000000   20.000000    0.000000
        0.000000    0.000000   20.000000

outcell: Cell vector modules (Ang)   :   20.000000   20.000000   20.000000
outcell: Cell angles (23,13,12) (deg):     90.0000     90.0000     90.0000
outcell: Cell volume (Ang**3)        :   8000.0000
<dSpData1D:S at geom step 15
  <sparsity:sparsity for geom step 15
    nrows_g=114 nrows=114 sparsity=.9246 nnzs=12016, refcount: 7>
  <dData1D:(new from dSpData1D) n=12016, refcount: 1>
refcount: 1>
new_DM -- step:    16
Re-using DM from previous geometries...
Number of DMs in history: 1
 DM extrapolation coefficients:
1   1.00000
New DM after history re-use:
<dSpData2D:SpM extrapolated using coords
  <sparsity:sparsity for geom step 15
    nrows_g=114 nrows=114 sparsity=.9246 nnzs=12016, refcount: 9>
  <dData2D:(temp array for extrapolation) n=12016 m=1, refcount: 1>
refcount: 1>
No. of atoms with KB's overlaping orbs in proc 0. Max # of overlaps:       6      84

InitMesh: MESH = 216 x 216 x 216 = 10077696
InitMesh: Mesh cutoff (required, used) =   300.000   322.366 Ry
New grid distribution [1]: sub = 2

        iscf     Eharris(eV)        E_KS(eV)     FreeEng(eV)     dDmax    Ef(eV) dHmax(eV)
   scf:    1   -24185.111357   -24185.296483   -24185.296483  0.050955 -4.996051  0.240635
   scf:    2   -24185.233802   -24185.278397   -24185.278397  0.109633 -4.976188  0.735722
   scf:    3   -24185.303185   -24185.298582   -24185.298582  0.084109 -4.993368  0.009948
   scf:    4   -24185.298614   -24185.298599   -24185.298599  0.000702 -4.994026  0.005431
   scf:    5   -24185.298616   -24185.298608   -24185.298608  0.000660 -4.994605  0.001532
   scf:    6   -24185.298611   -24185.298610   -24185.298610  0.000224 -4.994644  0.000901
   scf:    7   -24185.298610   -24185.298610   -24185.298610  0.000150 -4.994664  0.000245
   scf:    8   -24185.298610   -24185.298610   -24185.298610  0.000022 -4.994663  0.000106

SCF Convergence by DM+H criterion
max |DM_out - DM_in|         :     0.0000220554
max |H_out - H_in|      (eV) :     0.0001058811
SCF cycle converged after 8 iterations

Using DM_out to compute the final energy and forces
No. of atoms with KB's overlaping orbs in proc 0. Max # of overlaps:       6      84

siesta: E_KS(eV) =           -24185.2986

siesta: Atomic forces (eV/Ang):
   Tot   -0.000009   -0.000008    0.000582
   Max    0.846836
   Res    0.395703    sqrt( Sum f_i^2 / 3N )
   Max    0.846836    constrained

Stress tensor Voigt[x,y,z,yz,xz,xy] (kbar):        0.09        0.09        0.32        0.17        0.17        0.22
(Free)E + p*V (eV/cell)   -24186.1371
Target enthalpy (eV/cell)   -24185.2986

cgvc: Finished line minimization    5.  Mean atomic displacement =    0.1454

outcoor: Final (unrelaxed) atomic coordinates (Ang):
   -0.51745805   -0.51746070    0.48354435   1       1  Au
    0.03623695    1.97868693    1.72048810   1       2  Au
    1.97868433    0.03623672    1.72048507   1       3  Au
    2.27600815    2.27600369    0.09950151   1       4  Au
    0.43017964    4.14044997    0.07483589   1       5  Au
    4.14044646    0.43018240    0.07483538   1       6  Au

coxmol: Writing XMOL coordinates into file AuRel.xyz

siesta: Program's energy decomposition (eV):
siesta: Ebs     =     -3989.812853
siesta: Eions   =     30466.874044
siesta: Ena     =      3071.122847
siesta: Ekin    =      6952.826414
siesta: Enl     =       409.839491
siesta: Eso     =         0.000000
siesta: Edftu   =         0.000000
siesta: DEna    =        89.969239
siesta: DUscf   =         2.059198
siesta: DUext   =         0.000000
siesta: Ex      =     -4003.523846
siesta: Ec      =      -240.717909
siesta: Exc     =     -4244.241754
siesta: EbV     =         0.000000
siesta: eta*DQ  =         0.000000
siesta: Emadel  =         0.000000
siesta: Emeta   =         0.000000
siesta: Emolmec =         0.000000
siesta: Ekinion =         0.000000
siesta: Eharris =    -24185.298610
siesta: Etot    =    -24185.298610
siesta: FreeEng =    -24185.298610

siesta: Final energy (eV):
siesta:  Band Struct. =   -3989.812853
siesta:       Kinetic =    6952.826414
siesta:       Hartree =   29765.967496
siesta:         Edftu =       0.000000
siesta:       Eso     =       0.000000
siesta:    Ext. field =       0.000000
siesta:         Exch. =   -4003.523846
siesta:         Corr. =    -240.717909
siesta:     Bulk bias =       0.000000
siesta:   Exch.-corr. =   -4244.241754
siesta:  Ion-electron =  -67435.686107
siesta:       Ion-ion =   10775.835341
siesta:       Ekinion =       0.000000
siesta: D3 dispersion =       0.000000
siesta:         Total =  -24185.298610
siesta:         Fermi =      -4.994663

siesta: Atomic forces (eV/Ang):
siesta:      1    0.589008    0.589013    0.846836
siesta:      2   -0.421409   -0.249840   -0.592895
siesta:      3   -0.249851   -0.421424   -0.592873
siesta:      4    0.191326    0.191450   -0.136320
siesta:      5   -0.097689   -0.011464    0.237923
siesta:      6   -0.011394   -0.097743    0.237912
siesta: ----------------------------------------
siesta:    Tot   -0.000009   -0.000008    0.000582

siesta: Stress tensor (static) (eV/Ang**3):
siesta:     0.000057    0.000140    0.000107
siesta:     0.000140    0.000057    0.000107
siesta:     0.000107    0.000107    0.000200

siesta: Cell volume =       8000.000000 Ang**3

siesta: Pressure (static):
siesta:                Solid            Molecule  Units
siesta:          -0.00000114          0.00000001  Ry/Bohr**3
siesta:          -0.00010482          0.00000124  eV/Ang**3
siesta:          -0.16793363          0.00198497  kBar
(Free)E+ p_basis*V_orbitals  =      -24178.195495
(Free)Eharris+ p_basis*V_orbitals  =      -24178.195495

siesta: Electric dipole (a.u.)  =   -0.168685   -0.168690   -0.118223
siesta: Electric dipole (Debye) =   -0.428756   -0.428767   -0.300494

cite: Please indicate the Siesta version in published work: 5.2.2
cite: This calculation has made use of features in the following articles
cite: which we encourage you to cite in published work.
cite: (Please see "AuRel.bib" for a BibTeX file.)
        Primary SIESTA paper
          DOI: www.doi.org/10.1088/0953-8984/14/11/302
        PSML pseudopotential format
          DOI: www.doi.org/10.1016/j.cpc.2018.02.011

Routine            Calls   Time/call    Tot.time        %
siesta                 1    1076.278    1076.278   100.00
Setup                  1       0.193       0.193     0.02
bands                  1       0.000       0.000     0.00
KSV_init               1       0.000       0.000     0.00
IterGeom              16      67.254    1076.065    99.98
geom_init             16      10.881     174.096    16.18
state_init            16       0.047       0.749     0.07
hsparse               16       0.001       0.016     0.00
overlap               16       0.042       0.668     0.06
Setup_H0              16       5.681      90.890     8.44
naefs                 32       0.000       0.003     0.00
dnaefs                32       0.000       0.001     0.00
MolMec                32       0.000       0.000     0.00
kinefsm               32       0.028       0.890     0.08
nlefsm                32       0.105       3.370     0.31
DHSCF_Init            16       5.451      87.212     8.10
DHSCF1                16       0.202       3.231     0.30
InitMesh              16       0.202       3.229     0.30
INITMESH              16       0.000       0.000     0.00
DHSCF2                16       5.249      83.981     7.80
REMESH                16       0.321       5.135     0.48
REORD                584       0.035      20.506     1.91
PHION                 16       2.478      39.641     3.68
COMM_BSC             736       0.029      21.154     1.97
POISON               188       1.692     318.068    29.55
fft                  376       0.690     259.567    24.12
setup_H              156       5.335     832.206    77.32
DHSCF                172       5.705     981.258    91.17
DHSCF3               172       5.339     918.257    85.32
rhoofd               172       0.577      99.321     9.23
XC                   172       2.204     379.083    35.22
GXC-CellXC           172       2.084     358.491    33.31
gridxc@cellXC        172       2.084     358.486    33.31
vmat                 172       0.382      65.696     6.10
IterSCF              140       5.370     751.758    69.85
compute_dm           140       0.013       1.852     0.17
diagon               140       0.013       1.836     0.17
r-eigvec             140       0.007       0.967     0.09
r-buildHS            140       0.000       0.017     0.00
rdiag                140       0.007       0.950     0.09
rdiag1               140       0.000       0.034     0.00
rdiag2               140       0.001       0.099     0.01
rdiag3               140       0.004       0.606     0.06
rdiag4               140       0.001       0.199     0.02
r-buildD             140       0.006       0.847     0.08
MIXER                124       0.000       0.028     0.00
PostSCF               16       9.380     150.083    13.94
FINAL_HF              16       9.380     150.082    13.94
DHSCF4                16       3.938      63.000     5.85
dfscf                 16       3.170      50.716     4.71
overfsm               16       0.008       0.131     0.01
writeHSX              16       0.001       0.018     0.00
state_analysis        16       0.001       0.023     0.00
siesta_move           16       0.006       0.096     0.01
Analysis               1       0.009       0.009     0.00
optical                1       0.000       0.000     0.00

>> End of run:   1-JUL-2025  20:30:40
Job completed
Job completed