 NOTE: Siesta V5 introduces some new defaults for basis-set generation
 NOTE: which might lead to slightly different numerical results.
 NOTE: Please see the manual for full details and compatibility measures.

reinit: Reading from file optimization.fdf

reinit: -----------------------------------------------------------------------
reinit: System Name:
reinit: -----------------------------------------------------------------------
reinit: System Label: AuRel
reinit: -----------------------------------------------------------------------

initatom: Reading input for the pseudopotentials and atomic orbitals ----------
Species number:   1 Atomic number:   79 Label: Au

Ground state valence configuration (from tables):   6s01  6p00  5d10  5f00

---- Processing specs for species: Au
Reading pseudopotential information in PSML from:
  Au.psml
PSML file version: 1.1
GGA--PBE XC_GGA_X_PBE--XC_GGA_C_PBE pb
PSML uuid: fa497b30-be45-11e7-41fb-494093d7a025
Semicore shell(s) with  8 electrons included in the valence for Au

---- Pseudopotential check for Au

Pseudized shells:
5s( 2.00) rc: 1.46
5p( 6.00) rc: 1.56
5d(10.00) rc: 1.56
5f( 0.00) rc: 1.60
Valence configuration for ps generation: 5s:5p:5d:6s: Total charge:  19.000000
Semicore shell(s): 5s 5p
Fallback to non-perturbative polarization scheme for Au
Please see the manual if this is not desired in principle
For Au, standard SIESTA heuristics set lmxkb to 3
 (one more than the basis l, including polarization orbitals).
Use PS.lmax or PS.KBprojectors blocks to override.

<basis_specs>
Au                   Z=  79    Mass=  196.97        Charge= 0.17977+309
Lmxo=2 Lmxkb= 3    BasisType=split      Semic=T
L=0  Nsemic=1  Cnfigmx=6
          i=1  nzeta=1  polorb=0  (5s)  (semicore shell)
            splnorm:   0.15000
               vcte:    40.000
               rinn:  -0.90000
               qcoe:    0.0000
               qyuk:    0.0000
               qwid:   0.10000E-01
                rcs:    0.0000
            lambdas:    1.0000
          i=2  nzeta=2  polorb=0  (6s)  (to be polarized non-perturbatively)
            splnorm:   0.15000
               vcte:    40.000
               rinn:  -0.90000
               qcoe:    0.0000
               qyuk:    0.0000
               qwid:   0.10000E-01
                rcs:    0.0000      0.0000
            lambdas:    1.0000      1.0000
L=1  Nsemic=1  Cnfigmx=6
          i=1  nzeta=1  polorb=0  (5p)  (semicore shell)
            splnorm:   0.15000
               vcte:    40.000
               rinn:  -0.90000
               qcoe:    0.0000
               qyuk:    0.0000
               qwid:   0.10000E-01
                rcs:    0.0000
            lambdas:    1.0000
          i=2  nzeta=1  polorb=0  (6p)  (non-perturbative polarization shell)
            splnorm:   0.15000
               vcte:    40.000
               rinn:  -0.90000
               qcoe:    0.0000
               qyuk:   0.49407-323
               qwid:   0.44466-322
                rcs:    0.0000
            lambdas:    1.0000
L=2  Nsemic=0  Cnfigmx=5
          i=1  nzeta=2  polorb=0  (5d)
            splnorm:   0.15000
               vcte:    40.000
               rinn:  -0.90000
               qcoe:    0.0000
               qyuk:    0.0000
               qwid:   0.10000E-01
                rcs:    0.0000      0.0000
            lambdas:    1.0000      1.0000
L=0  Nkbl=2  erefs: 0.17977+309 0.17977+309
L=1  Nkbl=2  erefs: 0.17977+309 0.17977+309
L=2  Nkbl=1  erefs: 0.17977+309
L=3  Nkbl=1  erefs: 0.17977+309
</basis_specs>

Using PAO.SplitTailNorm
atom: Called for Au                    (Z =  79)
Maximum radius (at nrval) set to   50.00000 8518

read_vps: Pseudopotential generation method:
read_vps: ONCVPSP-3.Hamann's oncvpsp
Valence charge in pseudo generation:   19.00000

read_vps: Pseudopotential includes a core correction:
read_vps: Pseudo-core for xc-correction

xc_check: Exchange-correlation functional:
xc_check: GGA Perdew, Burke & Ernzerhof 1996
Got Vlocal (oncv-fit) from psml data
Choosing vlocal chloc cutoff:  5.037181
qtot up to nchloc:   18.99999407
atom: Maximum radius for chlocal:    5.03718
atom: Maximum radius for r*vlocal+2*Zval:    5.03718
Reading KB projs from Au psml data
Using scalar-relativistic projectors in PSML file

PSML: Kleinman-Bylander projectors:
   l= 0   rc=  1.474132   Ekb= 18.815768
   l= 0   rc=  1.474132   Ekb= -0.390506
   l= 1   rc=  1.583336   Ekb=  4.781134
   l= 1   rc=  1.583336   Ekb= -3.699696
   l= 2   rc=  1.583336   Ekb=  2.968821
   l= 2   rc=  1.583336   Ekb=  0.574456
   l= 3   rc=  1.622038   Ekb=  2.312314

PSML: Total number of  Kleinman-Bylander projectors:  25
atom: -------------------------------------------------------------------------

atom: SANKEY-TYPE ORBITALS:
atom: Selected multiple-zeta basis: split

SPLIT: Orbitals with angular momentum L= 0

SPLIT: Basis orbitals for state 5s

SPLIT: PAO cut-off radius determined from an
SPLIT: energy shift=  0.000735 Ry
Split based on tail norm

   izeta = 1
                 lambda =    1.000000
                     rc =    2.925359
                 energy =   -7.964134
                kinetic =    2.893592
    potential(screened) =  -10.857725
       potential(ionic) =  -37.457701

SPLIT: Basis orbitals for state 6s

[...]

   izeta = 2
                 rmatch =    4.927355
              splitnorm =    0.150000
                 energy =   -0.413505
                kinetic =    2.478661
    potential(screened) =   -2.892166
       potential(ionic) =  -20.911581

[...]

SPLIT: Basis orbitals for state 5p

[...]

SPLIT: Basis orbitals for state 6p
SPLIT: Non-perturbative polarization orbs for state 6s
SPLIT: rc(1st zeta) (re)set to: 8.0332 (expansion factor: 1.0000)
Split based on tail norm

[...]

SPLIT: Orbitals with angular momentum L= 2

SPLIT: Basis orbitals for state 5d

SPLIT: PAO cut-off radius determined from an
SPLIT: energy shift=  0.000735 Ry
Split based on tail norm

   izeta = 1
                 lambda =    1.000000
                     rc =    6.393405
                 energy =   -0.504592
                kinetic =    4.935315
    potential(screened) =   -5.439906
       potential(ionic) =  -26.571989

   izeta = 2
                 rmatch =    3.462344
              splitnorm =    0.150000
                 energy =   -0.397189
                kinetic =    6.101362
    potential(screened) =   -6.498551
       potential(ionic) =  -29.253309
atom: Total number of Sankey-type orbitals: 19

atm_pop: Valence configuration (for local Pseudopot. screening):
 5s( 2.00) 6s( 1.00)
 5p( 6.00) 6p( 0.00)
 5d(10.00)
Vna: chval, zval:   19.00000  19.00000

Vna:  Cut-off radius for the neutral-atom potential:   8.033223
comcore: Pseudo-core radius Rcore=  2.583037

atom: _________________________________________________________________________

prinput: Basis input

PAO.BasisType split

%block ChemicalSpeciesLabel
    1   79 Au                      # Species index, atomic number, species label
%endblock ChemicalSpeciesLabel

%block PAO.Basis                 # Define Basis set
# WARNING: This information might be incomplete!
Au                    5                    # Species label, number of l-shells
 n=5   0   1                         # n, l, Nzeta
   2.925
   1.000
 n=6   0   2                         # n, l, Nzeta
   8.033      4.927
   1.000      1.000
 n=5   1   1                         # n, l, Nzeta
   3.518
   1.000
 n=6   1   1                         # n, l, Nzeta
   8.033
   1.000
 n=5   2   2                         # n, l, Nzeta
   6.393      3.462
   1.000      1.000
%endblock PAO.Basis

prinput: ----------------------------------------------------------------------

Dumping basis to NetCDF file Au.ion.nc
coor:   Atomic-coordinates input format  =     Cartesian coordinates
coor:                                          (in Angstroms)

siesta: Atomic coordinates (Bohr) and species
siesta:      0.46334   0.46334   0.46334  1        1
siesta:      0.04445   4.14822   4.14821  1        2
siesta:      4.14822   0.04445   4.14821  1        3
siesta:      4.14822   4.14822   0.04445  1        4
siesta:      6.63948   6.63948   6.63948  1        5
siesta:      7.54222   0.33227   0.33227  1        6
siesta:      0.33227   7.54222   0.33227  1        7
siesta:      0.33227   0.33227   7.54223  1        8
siesta:      7.88260   4.14822   4.14821  1        9

siesta: System type = molecule

initatomlists: Number of atoms, orbitals, and projectors:      9   171   225

coxmol: Writing XMOL coordinates into file AuRel.xyz

siesta: ******************** Simulation parameters ****************************
siesta:
siesta: The following are some of the parameters of the simulation.
siesta: A complete list of the parameters used, including default values,
siesta: can be found in file out.fdf
siesta:
redata: Spin configuration                          = none
redata: Number of spin components                   = 1
redata: Time-Reversal Symmetry                      = T
redata: Spin spiral                                 = F
redata: Long output                                 =   F
redata: Number of Atomic Species                    =        1
redata: Charge density info will appear in .RHO file
redata: Write Mulliken charges (when)               = none
redata: Write Mulliken Pop.                         = NO
redata: Write Hirshfeld charges (when)              = none
redata: Write Voronoi charges (when)                = none
redata: Write spin charge (when)                    = none
redata: Matel table size (NRTAB)                    =     1024
redata: Mesh Cutoff                                 =   300.0000 Ry
redata: Net charge of the system                    =     0.0000 |e|
redata: Min. number of SCF Iter                     =        0
redata: Max. number of SCF Iter                     =     1000
redata: SCF convergence failure will abort job
redata: SCF mix quantity                            = Hamiltonian
redata: Mix DM or H after convergence               =   F
redata: Recompute H after scf cycle                 =   F
redata: Mix DM in first SCF step                    =   T
redata: Write Pulay info on disk                    =   F
redata: New DM Occupancy tolerance                  = 0.000000000001
redata: No kicks to SCF
redata: DM Mixing Weight for Kicks                  =     0.5000
redata: Require Harris convergence for SCF          =   F
redata: Harris energy tolerance for SCF             =     0.000100 eV
redata: Require DM convergence for SCF              =   T
redata: DM tolerance for SCF                        =     0.000100
redata: Require EDM convergence for SCF             =   F
redata: EDM tolerance for SCF                       =     0.001000 eV
redata: Require H convergence for SCF               =   T
redata: Hamiltonian tolerance for SCF               =     0.001000 eV
redata: Require (free) Energy convergence for SCF   =   F
redata: (free) Energy tolerance for SCF             =     0.000100 eV
redata: Using DFT-D3 dispersion                     =   F
redata: Using Saved Data (generic)                  =   F
redata: Use continuation files for DM               =   T
redata: Neglect nonoverlap interactions             =   F
[...]
mix.SCF:    Variant                              = stable
mix.SCF:    History steps                        = 2
mix.SCF:    Linear mixing weight                 =     0.250000
mix.SCF:    Mixing weight                        =     0.250000
mix.SCF:    SVD condition                        = 0.1000E-07
redata: Save all siesta data in one NC              =   F
redata: ***********************************************************************

%block SCF.Mixers
  Pulay
%endblock SCF.Mixers

%block SCF.Mixer.Pulay
  # Mixing method
  method pulay
  variant stable

  # Mixing options
  weight 0.2500
  weight.linear 0.2500
  history 2
%endblock SCF.Mixer.Pulay

DM_history_depth set to one: no extrapolation allowed by default for geometry relaxation
Size of DM history Fstack: 1
Total number of electrons:   171.000000
Total ionic charge:   171.000000

siesta: k-grid: Number of k-points = 1
siesta: k-point is Gamma-only

diag: Algorithm                                     = D&C
diag: Used triangular part                          = Lower
diag: Absolute tolerance                            =  0.100E-15
diag: Orthogonalization factor                      =  0.100E-05

ts: **************************************************************
ts: Save H and S matrices                           =    F
ts: Save DM and EDM matrices                        =    F
ts: Only save the overlap matrix S                  =    F
ts: **************************************************************

************************ Begin: TS CHECKS AND WARNINGS ************************
************************ End: TS CHECKS AND WARNINGS **************************

                        Begin CG opt. move =      0

outcell: Unit cell vectors (Ang):
       20.000000    0.000000    0.000000
        0.000000   20.000000    0.000000
        0.000000    0.000000   20.000000

outcell: Cell vector modules (Ang)   :   20.000000   20.000000   20.000000
outcell: Cell angles (23,13,12) (deg):     90.0000     90.0000     90.0000
outcell: Cell volume (Ang**3)        :   8000.0000
<dSpData1D:S at geom step 0
  <sparsity:sparsity for geom step 0
    nrows_g=171 nrows=171 sparsity=.8594 nnzs=25129, refcount: 7>
  <dData1D:(new from dSpData1D) n=25129, refcount: 1>
refcount: 1>
new_DM -- step:     1
Initializing Density Matrix...

Attempting to read DM from file... Succeeded...
DM from file:
<dSpData2D:IO-DM: AuRel.DM
  <sparsity:IO-DM: AuRel.DM
    nrows_g=171 nrows=171 sparsity=.8420 nnzs=24621, refcount: 1>
  <dData2D:(new from dSpData2D) n=24621 m=1, refcount: 1>
refcount: 1>
DM to be used:
<dSpData2D:Re-structured SpM
  <sparsity:sparsity for geom step 0
    nrows_g=171 nrows=171 sparsity=.8594 nnzs=25129, refcount: 8>
  <dData2D:(new in restruct) n=25129 m=1, refcount: 1>
refcount: 1>
Note: For starting DM, Qtot, Tr[D*S] =        171.00000000        257.06645064
No. of atoms with KB's overlaping orbs in proc 0. Max # of overlaps:       9      98

InitMesh: MESH = 216 x 216 x 216 = 10077696
InitMesh: Mesh cutoff (required, used) =   300.000   322.366 Ry
New grid distribution [1]: sub = 2

stepf: Fermi-Dirac step function

siesta: Program's energy decomposition (eV):
siesta: Ebs     =     11044.628663
siesta: Eions   =     45700.311067
siesta: Ena     =      4598.474439
siesta: Ekin    =     10032.246671
siesta: Enl     =       748.140361
siesta: Eso     =         0.000000
siesta: Edftu   =         0.000000
siesta: DEna    =      1921.668117
siesta: DUscf   =     11044.379834
siesta: DUext   =         0.000000
siesta: Ex      =     -5764.166179
siesta: Ec      =      -365.769458
siesta: Exc     =     -6129.935637
siesta: EbV     =         0.000000
siesta: eta*DQ  =         0.000000
siesta: Emadel  =         0.000000
siesta: Emeta   =         0.000000
siesta: Emolmec =         0.000000
siesta: Ekinion =         0.000000
siesta: Eharris =     10579.003231
siesta: Etot    =    -23485.337282
siesta: FreeEng =    -23485.372216

SCF Convergence by DM+H criterion
max |DM_out - DM_in|         :     0.0000791751
max |H_out - H_in|      (eV) :     0.0002879432
SCF cycle converged after 21 iterations

Using DM_out to compute the final energy and forces
No. of atoms with KB's overlaping orbs in proc 0. Max # of overlaps:       9      98

siesta: E_KS(eV) =           -36273.2561

siesta: E_KS - E_eggbox =    -36273.2561

siesta: Atomic forces (eV/Ang):
   Tot   -0.000741    0.000976    0.000976
   Max   19.288790
   Res    7.788890    sqrt( Sum f_i^2 / 3N )
   Max   19.288790    constrained

Stress tensor Voigt[x,y,z,yz,xz,xy] (kbar):       -0.78       -4.68       -4.68       -5.22        2.45        2.45
(Free)E + p*V (eV/cell)   -36256.4024
Target enthalpy (eV/cell)   -36273.2908

[...]

outcell: Cell vector modules (Ang)   :   20.000000   20.000000   20.000000
outcell: Cell angles (23,13,12) (deg):     90.0000     90.0000     90.0000
outcell: Cell volume (Ang**3)        :   8000.0000
<dSpData1D:S at geom step 1
  <sparsity:sparsity for geom step 1
    nrows_g=171 nrows=171 sparsity=.8592 nnzs=25125, refcount: 7>
  <dData1D:(new from dSpData1D) n=25125, refcount: 1>
refcount: 1>
new_DM -- step:     2
Re-using DM from previous geometries...
Number of DMs in history: 1
 DM extrapolation coefficients:
1   1.00000
New DM after history re-use:
<dSpData2D:SpM extrapolated using coords
  <sparsity:sparsity for geom step 1
    nrows_g=171 nrows=171 sparsity=.8592 nnzs=25125, refcount: 9>
  <dData2D:(temp array for extrapolation) n=25125 m=1, refcount: 1>
refcount: 1>
No. of atoms with KB's overlaping orbs in proc 0. Max # of overlaps:       9      98

[...]

        iscf     Eharris(eV)        E_KS(eV)     FreeEng(eV)     dDmax    Ef(eV) dHmax(eV)
   scf:    1   -36276.612238   -36276.132786   -36276.167444  0.162159 -4.639834  3.042205
   scf:    2   -36271.474633   -36274.851047   -36274.885704  0.339255 -4.596613  7.946541
   scf:    3   -36276.844047   -36276.342884   -36276.377542  0.240736 -4.644804  0.362747
   scf:    4   -36276.348354   -36276.348048   -36276.382706  0.017316 -4.647142  0.120175
   scf:    5   -36276.348808   -36276.348489   -36276.383146  0.004972 -4.646982  0.046316
   scf:    6   -36276.348764   -36276.348634   -36276.383291  0.002903 -4.646639  0.027782
   scf:    7   -36276.348767   -36276.348713   -36276.383370  0.004132 -4.645509  0.004325
   scf:    8   -36276.348718   -36276.348716   -36276.383373  0.000335 -4.645158  0.001977
   scf:    9   -36276.348718   -36276.348717   -36276.383374  0.000362 -4.644876  0.000886
   scf:   10   -36276.348717   -36276.348717   -36276.383375  0.000113 -4.644832  0.000520
   scf:   11   -36276.348717   -36276.348717   -36276.383375  0.000097 -4.644803  0.000173

[...]

cgvc: Finished line minimization    1.  Mean atomic displacement =    0.1365

[...]

cgvc: Finished line minimization    5.  Mean atomic displacement =    0.0652

                        Begin CG opt. move =     15

outcell: Unit cell vectors (Ang):
       20.000000    0.000000    0.000000
        0.000000   20.000000    0.000000
        0.000000    0.000000   20.000000

outcell: Cell vector modules (Ang)   :   20.000000   20.000000   20.000000
outcell: Cell angles (23,13,12) (deg):     90.0000     90.0000     90.0000
outcell: Cell volume (Ang**3)        :   8000.0000
<dSpData1D:S at geom step 15
  <sparsity:sparsity for geom step 15
    nrows_g=171 nrows=171 sparsity=.8725 nnzs=25513, refcount: 7>
  <dData1D:(new from dSpData1D) n=25513, refcount: 1>
refcount: 1>
new_DM -- step:    16
Re-using DM from previous geometries...
Number of DMs in history: 1
 DM extrapolation coefficients:
1   1.00000
New DM after history re-use:
<dSpData2D:SpM extrapolated using coords
  <sparsity:sparsity for geom step 15
    nrows_g=171 nrows=171 sparsity=.8725 nnzs=25513, refcount: 9>
  <dData2D:(temp array for extrapolation) n=25513 m=1, refcount: 1>
refcount: 1>
No. of atoms with KB's overlaping orbs in proc 0. Max # of overlaps:       9     107

InitMesh: MESH = 216 x 216 x 216 = 10077696
InitMesh: Mesh cutoff (required, used) =   300.000   322.366 Ry
New grid distribution [1]: sub = 2

        iscf     Eharris(eV)        E_KS(eV)     FreeEng(eV)     dDmax    Ef(eV) dHmax(eV)
   scf:    1   -36278.728689   -36278.724443   -36278.759100  0.055994 -4.620438  0.357666
   scf:    2   -36278.598179   -36278.688516   -36278.723173  0.107085 -4.616351  1.110005
   scf:    3   -36278.739085   -36278.729235   -36278.763893  0.079394 -4.621067  0.006692
   scf:    4   -36278.729273   -36278.729255   -36278.763913  0.000910 -4.621170  0.004965
   scf:    5   -36278.729278   -36278.729268   -36278.763925  0.001214 -4.621348  0.001226
   scf:    6   -36278.729269   -36278.729269   -36278.763926  0.000255 -4.621373  0.000492
   scf:    7   -36278.729269   -36278.729269   -36278.763926  0.000037 -4.621373  0.000247

SCF Convergence by DM+H criterion
max |DM_out - DM_in|         :     0.0000367212
max |H_out - H_in|      (eV) :     0.0002474706
SCF cycle converged after 7 iterations

Using DM_out to compute the final energy and forces
No. of atoms with KB's overlaping orbs in proc 0. Max # of overlaps:       9     107

siesta: E_KS(eV) =           -36278.7293

siesta: Atomic forces (eV/Ang):
   Tot   -0.001164    0.000064    0.000064
   Max    0.289158
   Res    0.090994    sqrt( Sum f_i^2 / 3N )
   Max    0.289158    constrained

Stress tensor Voigt[x,y,z,yz,xz,xy] (kbar):        0.11        0.01        0.01        0.00        0.18        0.18
(Free)E + p*V (eV/cell)   -36278.9735
Target enthalpy (eV/cell)   -36278.7639

outcoor: Final (unrelaxed) atomic coordinates (Ang):
    0.24544535    0.13867319    0.13867321   1       1  Au
    0.29165571    2.23642821    2.23642795   1       2  Au
    2.15594484    0.12142789    2.19365261   1       3  Au
    2.15594499    2.19365245    0.12142699   1       4  Au
    3.25067093    3.69346105    3.69346101   1       5  Au
    3.93948828    0.09995501    0.09995467   1       6  Au
    0.20010029    3.99155643    0.21552701   1       7  Au
    0.20010063    0.21552793    3.99155663   1       8  Au
    4.24708839    2.02010504    2.02010521   1       9  Au

coxmol: Writing XMOL coordinates into file AuRel.xyz

siesta: Program's energy decomposition (eV):
siesta: Ebs     =     -6013.798090
siesta: Eions   =     45700.311067
siesta: Ena     =      4604.753211
siesta: Ekin    =     10424.427057
siesta: Enl     =       615.391566
siesta: Eso     =         0.000000
siesta: Edftu   =         0.000000
siesta: DEna    =       140.653123
siesta: DUscf   =         3.277529
siesta: DUext   =         0.000000
siesta: Ex      =     -6004.835654
siesta: Ec      =      -362.085034
siesta: Exc     =     -6366.920688
siesta: EbV     =         0.000000
siesta: eta*DQ  =         0.000000
siesta: Emadel  =         0.000000
siesta: Emeta   =         0.000000
siesta: Emolmec =         0.000000
siesta: Ekinion =         0.000000
siesta: Eharris =    -36278.729269
siesta: Etot    =    -36278.729269
siesta: FreeEng =    -36278.763926

siesta: Final energy (eV):
siesta:  Band Struct. =   -6013.798090
siesta:       Kinetic =   10424.427057
siesta:       Hartree =   52492.779298
siesta:         Edftu =       0.000000
siesta:       Eso     =       0.000000
siesta:    Ext. field =       0.000000
siesta:         Exch. =   -6004.835654
siesta:         Corr. =    -362.085034
siesta:     Bulk bias =       0.000000
siesta:   Exch.-corr. =   -6366.920688
siesta:  Ion-electron = -116864.407579
siesta:       Ion-ion =   24035.392644
siesta:       Ekinion =       0.000000
siesta: D3 dispersion =       0.000000
siesta:         Total =  -36278.729269
siesta:         Fermi =      -4.621373

siesta: Atomic forces (eV/Ang):
siesta:      1    0.156745    0.129103    0.129103
siesta:      2    0.034389    0.072380    0.072377
siesta:      3    0.053393   -0.086651   -0.056155
siesta:      4    0.053390   -0.056153   -0.086650
siesta:      5   -0.289158   -0.000410   -0.000410
siesta:      6    0.014436   -0.036576   -0.036575
siesta:      7   -0.014729    0.037189    0.062498
siesta:      8   -0.014730    0.062497    0.037192
siesta:      9    0.005101   -0.121315   -0.121315
siesta: ----------------------------------------
siesta:    Tot   -0.001164    0.000064    0.000064

siesta: Stress tensor (static) (eV/Ang**3):
siesta:     0.000072    0.000112    0.000112
siesta:     0.000112    0.000004    0.000001
siesta:     0.000112    0.000001    0.000004

siesta: Cell volume =       8000.000000 Ang**3

siesta: Pressure (static):
siesta:                Solid            Molecule  Units
siesta:          -0.00000029          0.00000002  Ry/Bohr**3
siesta:          -0.00002619          0.00000177  eV/Ang**3
siesta:          -0.04196226          0.00284260  kBar
(Free)E+ p_basis*V_orbitals  =      -36268.109254
(Free)Eharris+ p_basis*V_orbitals  =      -36268.109254

siesta: Electric dipole (a.u.)  =   -0.270188   -0.242668   -0.242668
siesta: Electric dipole (Debye) =   -0.686748   -0.616800   -0.616800

cite: Please indicate the Siesta version in published work: 5.2.2
cite: This calculation has made use of features in the following articles
cite: which we encourage you to cite in published work.
cite: (Please see "AuRel.bib" for a BibTeX file.)
        Primary SIESTA paper
          DOI: www.doi.org/10.1088/0953-8984/14/11/302
        PSML pseudopotential format
          DOI: www.doi.org/10.1016/j.cpc.2018.02.011

Routine            Calls   Time/call    Tot.time        %
siesta                 1    1032.751    1032.751   100.00
Setup                  1       0.163       0.163     0.02
bands                  1       0.000       0.000     0.00
KSV_init               1       0.000       0.000     0.00
IterGeom              16      64.536    1032.578    99.98
geom_init             16       9.615     153.837    14.90
state_init            16       0.039       0.631     0.06
hsparse               16       0.002       0.024     0.00
overlap               16       0.036       0.568     0.06
Setup_H0              16       4.932      78.912     7.64
naefs                 32       0.000       0.002     0.00
dnaefs                32       0.000       0.001     0.00
MolMec                32       0.000       0.000     0.00
kinefsm               32       0.026       0.819     0.08
nlefsm                32       0.095       3.043     0.29
DHSCF_Init            16       4.751      76.013     7.36
DHSCF1                16       0.138       2.205     0.21
InitMesh              16       0.138       2.205     0.21
INITMESH              16       0.000       0.000     0.00
DHSCF2                16       4.613      73.807     7.15
REMESH                16       0.302       4.829     0.47
REORD                614       0.025      15.417     1.49
PHION                 16       2.565      41.037     3.97
COMM_BSC             796       0.021      17.086     1.65
POISON               203       1.234     250.426    24.25
fft                  406       0.501     203.304    19.69
setup_H              171       4.779     817.209    79.13
DHSCF                187       5.064     946.994    91.70
DHSCF3               187       4.745     887.375    85.92
rhoofd               187       0.749     140.131    13.57
XC                   187       1.925     359.910    34.85
GXC-CellXC           187       1.828     341.914    33.11
gridxc@cellXC        187       1.828     341.911    33.11
vmat                 187       0.488      91.261     8.84
IterSCF              155       4.822     747.433    72.37
compute_dm           155       0.028       4.339     0.42
diagon               155       0.028       4.318     0.42
r-eigvec             155       0.015       2.313     0.22
r-buildHS            155       0.000       0.029     0.00
rdiag                155       0.015       2.284     0.22
rdiag1               155       0.000       0.076     0.01
rdiag2               155       0.001       0.232     0.02
rdiag3               155       0.009       1.403     0.14
rdiag4               155       0.004       0.558     0.05
r-buildD             155       0.013       1.971     0.19
MIXER                139       0.000       0.050     0.00
PostSCF               16       8.202     131.235    12.71
FINAL_HF              16       8.202     131.234    12.71
DHSCF4                16       3.726      59.619     5.77
dfscf                 16       3.063      49.011     4.75
overfsm               16       0.012       0.197     0.02
writeHSX              16       0.001       0.012     0.00
state_analysis        16       0.001       0.011     0.00
siesta_move           16       0.003       0.055     0.01
Analysis               1       0.003       0.003     0.00
optical                1       0.000       0.000     0.00

>> End of run:   1-JUL-2025  21:21:57
Job completed
Job completed