 NOTE: Siesta V5 introduces some new defaults for basis-set generation
 NOTE: which might lead to slightly different numerical results.
 NOTE: Please see the manual for full details and compatibility measures.

reinit: Reading from file optimization.fdf

reinit: -----------------------------------------------------------------------
reinit: System Name:
reinit: -----------------------------------------------------------------------
reinit: System Label: AuRel
reinit: -----------------------------------------------------------------------

initatom: Reading input for the pseudopotentials and atomic orbitals ----------
Species number:   1 Atomic number:   79 Label: Au

Ground state valence configuration (from tables):   6s01  6p00  5d10  5f00

---- Processing specs for species: Au
Reading pseudopotential information in PSML from:
  Au.psml
PSML file version: 1.1
GGA--PBE XC_GGA_X_PBE--XC_GGA_C_PBE pb
PSML uuid: fa497b30-be45-11e7-41fb-494093d7a025
Semicore shell(s) with  8 electrons included in the valence for Au

---- Pseudopotential check for Au

Pseudized shells:
5s( 2.00) rc: 1.46
5p( 6.00) rc: 1.56
5d(10.00) rc: 1.56
5f( 0.00) rc: 1.60
Valence configuration for ps generation: 5s:5p:5d:6s: Total charge:  19.000000
Semicore shell(s): 5s 5p
Fallback to non-perturbative polarization scheme for Au
Please see the manual if this is not desired in principle
For Au, standard SIESTA heuristics set lmxkb to 3
 (one more than the basis l, including polarization orbitals).
Use PS.lmax or PS.KBprojectors blocks to override.

<basis_specs>
Au                   Z=  79    Mass=  196.97        Charge= 0.17977+309
Lmxo=2 Lmxkb= 3    BasisType=split      Semic=T
L=0  Nsemic=1  Cnfigmx=6
          i=1  nzeta=1  polorb=0  (5s)  (semicore shell)
            splnorm:   0.15000
               vcte:    40.000
               rinn:  -0.90000
               qcoe:    0.0000
               qyuk:    0.0000
               qwid:   0.10000E-01
                rcs:    0.0000
            lambdas:    1.0000
          i=2  nzeta=2  polorb=0  (6s)  (to be polarized non-perturbatively)
            splnorm:   0.15000
               vcte:    40.000
               rinn:  -0.90000
               qcoe:    0.0000
               qyuk:    0.0000
               qwid:   0.10000E-01
                rcs:    0.0000      0.0000
            lambdas:    1.0000      1.0000
L=1  Nsemic=1  Cnfigmx=6
          i=1  nzeta=1  polorb=0  (5p)  (semicore shell)
            splnorm:   0.15000
               vcte:    40.000
               rinn:  -0.90000
               qcoe:    0.0000
               qyuk:    0.0000
               qwid:   0.10000E-01
                rcs:    0.0000
            lambdas:    1.0000
          i=2  nzeta=1  polorb=0  (6p)  (non-perturbative polarization shell)
            splnorm:   0.15000
               vcte:    40.000
               rinn:  -0.90000
               qcoe:    0.0000
               qyuk:   0.49407-323
               qwid:   0.44466-322
                rcs:    0.0000
            lambdas:    1.0000
L=2  Nsemic=0  Cnfigmx=5
          i=1  nzeta=2  polorb=0  (5d)
            splnorm:   0.15000
               vcte:    40.000
               rinn:  -0.90000
               qcoe:    0.0000
               qyuk:    0.0000
               qwid:   0.10000E-01
                rcs:    0.0000      0.0000
            lambdas:    1.0000      1.0000
L=0  Nkbl=2  erefs: 0.17977+309 0.17977+309
L=1  Nkbl=2  erefs: 0.17977+309 0.17977+309
L=2  Nkbl=1  erefs: 0.17977+309
L=3  Nkbl=1  erefs: 0.17977+309
</basis_specs>

Using PAO.SplitTailNorm
atom: Called for Au                    (Z =  79)
Maximum radius (at nrval) set to   50.00000 8518

read_vps: Pseudopotential generation method:
read_vps: ONCVPSP-3.Hamann's oncvpsp
Valence charge in pseudo generation:   19.00000

read_vps: Pseudopotential includes a core correction:
read_vps: Pseudo-core for xc-correction

xc_check: Exchange-correlation functional:
xc_check: GGA Perdew, Burke & Ernzerhof 1996
Got Vlocal (oncv-fit) from psml data
Choosing vlocal chloc cutoff:  5.037181
qtot up to nchloc:   18.99999407
atom: Maximum radius for chlocal:    5.03718
atom: Maximum radius for r*vlocal+2*Zval:    5.03718
Reading KB projs from Au psml data
Using scalar-relativistic projectors in PSML file

PSML: Kleinman-Bylander projectors:
   l= 0   rc=  1.474132   Ekb= 18.815768
   l= 0   rc=  1.474132   Ekb= -0.390506
   l= 1   rc=  1.583336   Ekb=  4.781134
   l= 1   rc=  1.583336   Ekb= -3.699696
   l= 2   rc=  1.583336   Ekb=  2.968821
   l= 2   rc=  1.583336   Ekb=  0.574456
   l= 3   rc=  1.622038   Ekb=  2.312314

PSML: Total number of  Kleinman-Bylander projectors:  25
atom: -------------------------------------------------------------------------

atom: SANKEY-TYPE ORBITALS:
atom: Selected multiple-zeta basis: split

SPLIT: Orbitals with angular momentum L= 0

SPLIT: Basis orbitals for state 5s

SPLIT: PAO cut-off radius determined from an
SPLIT: energy shift=  0.001470 Ry
Split based on tail norm

   izeta = 1
                 lambda =    1.000000
                     rc =    2.799004
                 energy =   -7.963306
                kinetic =    2.898839
    potential(screened) =  -10.862145
       potential(ionic) =  -37.466785

SPLIT: Basis orbitals for state 6s

[...]

   izeta = 2
                 rmatch =    4.853848
              splitnorm =    0.150000
                 energy =   -0.401898
                kinetic =    2.533804
    potential(screened) =   -2.935702
       potential(ionic) =  -21.063266

[...]

SPLIT: Basis orbitals for state 5p

[...]

SPLIT: Basis orbitals for state 6p
SPLIT: Non-perturbative polarization orbs for state 6s
SPLIT: rc(1st zeta) (re)set to: 7.5497 (expansion factor: 1.0000)
Split based on tail norm

[...]

SPLIT: Orbitals with angular momentum L= 2

SPLIT: Basis orbitals for state 5d

SPLIT: PAO cut-off radius determined from an
SPLIT: energy shift=  0.001470 Ry
Split based on tail norm

   izeta = 1
                 lambda =    1.000000
                     rc =    5.924779
                 energy =   -0.503749
                kinetic =    4.954431
    potential(screened) =   -5.458180
       potential(ionic) =  -26.629251

   izeta = 2
                 rmatch =    3.410647
              splitnorm =    0.150000
                 energy =   -0.387812
                kinetic =    6.163407
    potential(screened) =   -6.551219
       potential(ionic) =  -29.371764
atom: Total number of Sankey-type orbitals: 19

atm_pop: Valence configuration (for local Pseudopot. screening):
 5s( 2.00) 6s( 1.00)
 5p( 6.00) 6p( 0.00)
 5d(10.00)
Vna: chval, zval:   19.00000  19.00000

Vna:  Cut-off radius for the neutral-atom potential:   7.549687
comcore: Pseudo-core radius Rcore=  2.583037

atom: _________________________________________________________________________

prinput: Basis input

PAO.BasisType split

%block ChemicalSpeciesLabel
    1   79 Au                      # Species index, atomic number, species label
%endblock ChemicalSpeciesLabel

%block PAO.Basis                 # Define Basis set
# WARNING: This information might be incomplete!
Au                    5                    # Species label, number of l-shells
 n=5   0   1                         # n, l, Nzeta
   2.799
   1.000
 n=6   0   2                         # n, l, Nzeta
   7.550      4.854
   1.000      1.000
 n=5   1   1                         # n, l, Nzeta
   3.346
   1.000
 n=6   1   1                         # n, l, Nzeta
   7.550
   1.000
 n=5   2   2                         # n, l, Nzeta
   5.925      3.411
   1.000      1.000
%endblock PAO.Basis

prinput: ----------------------------------------------------------------------

Dumping basis to NetCDF file Au.ion.nc
coor:   Atomic-coordinates input format  =     Cartesian coordinates
coor:                                          (in Angstroms)

siesta: Atomic coordinates (Bohr) and species
siesta:      0.94486   0.00000   0.00000  1        1
siesta:      0.00000   3.94129   3.94129  1        2
siesta:      3.94129   0.00000   3.94129  1        3
siesta:      3.94129   3.94129   0.00000  1        4

siesta: System type = molecule

initatomlists: Number of atoms, orbitals, and projectors:      4    76   100

coxmol: Writing XMOL coordinates into file AuRel.xyz

siesta: ******************** Simulation parameters ****************************
siesta:
siesta: The following are some of the parameters of the simulation.
siesta: A complete list of the parameters used, including default values,
siesta: can be found in file out.fdf
siesta:
redata: Spin configuration                          = none
redata: Number of spin components                   = 1
redata: Time-Reversal Symmetry                      = T
redata: Spin spiral                                 = F
redata: Long output                                 =   F
redata: Number of Atomic Species                    =        1
redata: Charge density info will appear in .RHO file
redata: Write Mulliken charges (when)               = none
redata: Write Mulliken Pop.                         = NO
redata: Write Hirshfeld charges (when)              = none
redata: Write Voronoi charges (when)                = none
redata: Write spin charge (when)                    = none
redata: Matel table size (NRTAB)                    =     1024
redata: Mesh Cutoff                                 =   300.0000 Ry
redata: Net charge of the system                    =     0.0000 |e|
redata: Min. number of SCF Iter                     =        0
redata: Max. number of SCF Iter                     =     1000
redata: SCF convergence failure will abort job
redata: SCF mix quantity                            = Hamiltonian
redata: Mix DM or H after convergence               =   F
redata: Recompute H after scf cycle                 =   F
redata: Mix DM in first SCF step                    =   T
redata: Write Pulay info on disk                    =   F
redata: New DM Occupancy tolerance                  = 0.000000000001
redata: No kicks to SCF
redata: DM Mixing Weight for Kicks                  =     0.5000
redata: Require Harris convergence for SCF          =   F
redata: Harris energy tolerance for SCF             =     0.000100 eV
redata: Require DM convergence for SCF              =   T
redata: DM tolerance for SCF                        =     0.000100
redata: Require EDM convergence for SCF             =   F
redata: EDM tolerance for SCF                       =     0.001000 eV
redata: Require H convergence for SCF               =   T
redata: Hamiltonian tolerance for SCF               =     0.001000 eV
redata: Require (free) Energy convergence for SCF   =   F
redata: (free) Energy tolerance for SCF             =     0.000100 eV
redata: Using DFT-D3 dispersion                     =   F
redata: Using Saved Data (generic)                  =   F
redata: Use continuation files for DM               =   T
redata: Neglect nonoverlap interactions             =   F
redata: Method of Calculation                       = Diagonalization
redata: Electronic Temperature                      =   290.1130 K
redata: Fix the spin of the system                  =   F
redata: Max. number of TDED Iter                    =        1
[...]
diag: Absolute tolerance                            =  0.100E-15
diag: Orthogonalization factor                      =  0.100E-05

ts: **************************************************************
ts: Save H and S matrices                           =    F
ts: Save DM and EDM matrices                        =    F
ts: Only save the overlap matrix S                  =    F
ts: **************************************************************

************************ Begin: TS CHECKS AND WARNINGS ************************
************************ End: TS CHECKS AND WARNINGS **************************

                        Begin CG opt. move =      0

outcell: Unit cell vectors (Ang):
       20.000000    0.000000    0.000000
        0.000000   20.000000    0.000000
        0.000000    0.000000   20.000000

outcell: Cell vector modules (Ang)   :   20.000000   20.000000   20.000000
outcell: Cell angles (23,13,12) (deg):     90.0000     90.0000     90.0000
outcell: Cell volume (Ang**3)        :   8000.0000
<dSpData1D:S at geom step 0
  <sparsity:sparsity for geom step 0
    nrows_g=76 nrows=76 sparsity=.9997 nnzs=5774, refcount: 7>
  <dData1D:(new from dSpData1D) n=5774, refcount: 1>
refcount: 1>
new_DM -- step:     1
Initializing Density Matrix...

Attempting to read DM from file... Failed...
DM filled with atomic data:
<dSpData2D:DM initialized from atoms
  <sparsity:sparsity for geom step 0
    nrows_g=76 nrows=76 sparsity=.9997 nnzs=5774, refcount: 8>
  <dData2D:DM n=5774 m=1, refcount: 1>
refcount: 1>
No. of atoms with KB's overlaping orbs in proc 0. Max # of overlaps:       4      65

InitMesh: MESH = 216 x 216 x 216 = 10077696
InitMesh: Mesh cutoff (required, used) =   300.000   322.366 Ry
New grid distribution [1]: sub = 2

stepf: Fermi-Dirac step function

siesta: Program's energy decomposition (eV):
siesta: Ebs     =     -2972.290977
siesta: Eions   =     20311.249363
siesta: Ena     =      2038.866673
siesta: Ekin    =      4485.364567
siesta: Enl     =       268.745955
siesta: Eso     =         0.000000
siesta: Edftu   =         0.000000
siesta: DEna    =       187.704939
siesta: DUscf   =        11.730535
siesta: DUext   =         0.000000
siesta: Ex      =     -2635.887304
siesta: Ec      =      -159.069299
siesta: Exc     =     -2794.956603
siesta: EbV     =         0.000000
siesta: eta*DQ  =         0.000000
siesta: Emadel  =         0.000000
siesta: Emeta   =         0.000000
siesta: Emolmec =         0.000000
siesta: Ekinion =         0.000000
siesta: Eharris =    -16099.210637
siesta: Etot    =    -16113.793298
siesta: FreeEng =    -16113.804373

SCF Convergence by DM+H criterion
max |DM_out - DM_in|         :     0.0000965859
max |H_out - H_in|      (eV) :     0.0002314211
SCF cycle converged after 37 iterations

Using DM_out to compute the final energy and forces
No. of atoms with KB's overlaping orbs in proc 0. Max # of overlaps:       4      65

siesta: E_KS(eV) =           -16120.5225

siesta: E_KS - E_eggbox =    -16120.5225

siesta: Atomic forces (eV/Ang):
   Tot    0.001354    0.000919    0.000918
   Max    0.694977
   Res    0.327414    sqrt( Sum f_i^2 / 3N )
   Max    0.694977    constrained

Stress tensor Voigt[x,y,z,yz,xz,xy] (kbar):        0.20       -0.04       -0.04        0.03       -0.20       -0.20
(Free)E + p*V (eV/cell)   -16120.7887
Target enthalpy (eV/cell)   -16120.5916

[...]

outcell: Cell vector modules (Ang)   :   20.000000   20.000000   20.000000
outcell: Cell angles (23,13,12) (deg):     90.0000     90.0000     90.0000
outcell: Cell volume (Ang**3)        :   8000.0000
<dSpData1D:S at geom step 1
  <sparsity:sparsity for geom step 1
    nrows_g=76 nrows=76 sparsity=.9993 nnzs=5772, refcount: 7>
  <dData1D:(new from dSpData1D) n=5772, refcount: 1>
refcount: 1>
new_DM -- step:     2
Re-using DM from previous geometries...
Number of DMs in history: 1
 DM extrapolation coefficients:
1   1.00000
New DM after history re-use:
<dSpData2D:SpM extrapolated using coords
  <sparsity:sparsity for geom step 1
    nrows_g=76 nrows=76 sparsity=.9993 nnzs=5772, refcount: 9>
  <dData2D:(temp array for extrapolation) n=5772 m=1, refcount: 1>
refcount: 1>
No. of atoms with KB's overlaping orbs in proc 0. Max # of overlaps:       4      49

[...]

        iscf     Eharris(eV)        E_KS(eV)     FreeEng(eV)     dDmax    Ef(eV) dHmax(eV)
   scf:    1   -16119.664224   -16120.370396   -16120.435673  1.004888 -4.489433  2.233961
   scf:    2   -16105.692397   -16116.108612   -16116.108612  2.809058 -4.617352 10.572228
   scf:    3   -16122.033174   -16120.272431   -16120.321844  1.237535 -4.508019  2.052344
   scf:    4   -16115.788905   -16119.424608   -16119.432882  2.230402 -4.489289  3.493798
   scf:    5   -16121.013928   -16120.539268   -16120.604838  0.940785 -4.499471  0.943738
   scf:    6   -16120.029091   -16120.495420   -16120.557303  0.972819 -4.502159  1.225183
   scf:    7   -16120.629558   -16120.625031   -16120.694310  0.529610 -4.500054  0.022395
   scf:    8   -16120.625079   -16120.625129   -16120.694428  0.014674 -4.500336  0.030506
   scf:    9   -16120.624929   -16120.625069   -16120.694380  0.013169 -4.500441  0.022407
   scf:   10   -16120.624545   -16120.625027   -16120.694288  0.029502 -4.500669  0.038054
   scf:   11   -16120.625166   -16120.625164   -16120.694459  0.015341 -4.500889  0.005300
   scf:   12   -16120.625167   -16120.625166   -16120.694462  0.000906 -4.501215  0.002709
   scf:   13   -16120.625162   -16120.625165   -16120.694462  0.001197 -4.501607  0.003134
   scf:   14   -16120.625169   -16120.625167   -16120.694462  0.001698 -4.501665  0.002388
   scf:   15   -16120.625165   -16120.625167   -16120.694463  0.001028 -4.501813  0.000906
   scf:   16   -16120.625168   -16120.625167   -16120.694463  0.000437 -4.501960  0.001035
   scf:   17   -16120.625164   -16120.625166   -16120.694463  0.000852 -4.502008  0.001455
   scf:   18   -16120.625168   -16120.625167   -16120.694463  0.000631 -4.502082  0.000630
   scf:   19   -16120.625166   -16120.625167   -16120.694463  0.000228 -4.502147  0.000428
   scf:   20   -16120.625168   -16120.625167   -16120.694463  0.000284 -4.502207  0.000560
   scf:   21   -16120.625166   -16120.625167   -16120.694463  0.000335 -4.502223  0.000418
   scf:   22   -16120.625167   -16120.625167   -16120.694463  0.000138 -4.502262  0.000220
   scf:   23   -16120.625167   -16120.625167   -16120.694463  0.000133 -4.502291  0.000301
   scf:   24   -16120.625167   -16120.625167   -16120.694463  0.000165 -4.502306  0.000224
   scf:   25   -16120.625167   -16120.625167   -16120.694463  0.000099 -4.502323  0.000109

[...]

cgvc: Finished line minimization    1.  Mean atomic displacement =    0.1670

[...]

                        Begin CG opt. move =     15

outcell: Unit cell vectors (Ang):
       20.000000    0.000000    0.000000
        0.000000   20.000000    0.000000
        0.000000    0.000000   20.000000

outcell: Cell vector modules (Ang)   :   20.000000   20.000000   20.000000
outcell: Cell angles (23,13,12) (deg):     90.0000     90.0000     90.0000
outcell: Cell volume (Ang**3)        :   8000.0000
<dSpData1D:S at geom step 15
  <sparsity:sparsity for geom step 15
    nrows_g=76 nrows=76 sparsity=.9661 nnzs=5580, refcount: 7>
  <dData1D:(new from dSpData1D) n=5580, refcount: 1>
refcount: 1>
new_DM -- step:    16
Re-using DM from previous geometries...
Number of DMs in history: 1
 DM extrapolation coefficients:
1   1.00000
New DM after history re-use:
<dSpData2D:SpM extrapolated using coords
  <sparsity:sparsity for geom step 15
    nrows_g=76 nrows=76 sparsity=.9661 nnzs=5580, refcount: 9>
  <dData2D:(temp array for extrapolation) n=5580 m=1, refcount: 1>
refcount: 1>
No. of atoms with KB's overlaping orbs in proc 0. Max # of overlaps:       4      49

InitMesh: MESH = 216 x 216 x 216 = 10077696
InitMesh: Mesh cutoff (required, used) =   300.000   322.366 Ry
New grid distribution [1]: sub = 2

        iscf     Eharris(eV)        E_KS(eV)     FreeEng(eV)     dDmax    Ef(eV) dHmax(eV)
   scf:    1   -16120.836071   -16121.028988   -16121.083283  0.253314 -4.907940  0.301193
   scf:    2   -16120.644845   -16120.938116   -16120.948036  0.535921 -4.925630  1.406258
   scf:    3   -16121.078818   -16121.056287   -16121.096426  0.325833 -4.913846  0.141169
   scf:    4   -16121.045302   -16121.052291   -16121.097994  0.073786 -4.914227  0.044526
   scf:    5   -16121.056360   -16121.054480   -16121.098383  0.024660 -4.915124  0.011136
   scf:    6   -16121.054367   -16121.054426   -16121.098419  0.001299 -4.915647  0.006856
   scf:    7   -16121.054675   -16121.054552   -16121.098442  0.001437 -4.916348  0.003928
   scf:    8   -16121.054355   -16121.054455   -16121.098446  0.001383 -4.916705  0.002329
   scf:    9   -16121.054575   -16121.054515   -16121.098447  0.000852 -4.916721  0.001147
   scf:   10   -16121.054485   -16121.054500   -16121.098447  0.000203 -4.916781  0.000808
   scf:   11   -16121.054514   -16121.054507   -16121.098447  0.000109 -4.916862  0.000446
   scf:   12   -16121.054487   -16121.054497   -16121.098447  0.000133 -4.916930  0.000264
   scf:   13   -16121.054512   -16121.054504   -16121.098447  0.000100 -4.916942  0.000144
   scf:   14   -16121.054499   -16121.054502   -16121.098447  0.000035 -4.916951  0.000103

SCF Convergence by DM+H criterion
max |DM_out - DM_in|         :     0.0000347024
max |H_out - H_in|      (eV) :     0.0001029837
SCF cycle converged after 14 iterations

Using DM_out to compute the final energy and forces
No. of atoms with KB's overlaping orbs in proc 0. Max # of overlaps:       4      49

siesta: E_KS(eV) =           -16121.0545

siesta: Atomic forces (eV/Ang):
   Tot   -0.002567   -0.001515   -0.001516
   Max    0.824820
   Res    0.499533    sqrt( Sum f_i^2 / 3N )
   Max    0.824820    constrained

Stress tensor Voigt[x,y,z,yz,xz,xy] (kbar):        0.15        0.45        0.45        0.24       -0.09       -0.09
(Free)E + p*V (eV/cell)   -16122.8450
Target enthalpy (eV/cell)   -16121.0984

cgvc: Finished line minimization    4.  Mean atomic displacement =    0.2229

outcoor: Final (unrelaxed) atomic coordinates (Ang):
    0.93344260   -0.16872346   -0.16872309   1       1  Au
    0.52501759    2.22878642    2.22878551   1       2  Au
    1.60625170   -0.33130990    2.44250518   1       3  Au
    1.60625090    2.44250570   -0.33130898   1       4  Au

coxmol: Writing XMOL coordinates into file AuRel.xyz

siesta: Program's energy decomposition (eV):
siesta: Ebs     =     -2641.721890
siesta: Eions   =     20311.249363
siesta: Ena     =      2039.555529
siesta: Ekin    =      4637.069984
siesta: Enl     =       272.355813
siesta: Eso     =         0.000000
siesta: Edftu   =         0.000000
siesta: DEna    =        67.805004
siesta: DUscf   =         1.599885
siesta: DUext   =         0.000000
siesta: Ex      =     -2668.329562
siesta: Ec      =      -159.861792
siesta: Exc     =     -2828.191354
siesta: EbV     =         0.000000
siesta: eta*DQ  =         0.000000
siesta: Emadel  =         0.000000
siesta: Emeta   =         0.000000
siesta: Emolmec =         0.000000
siesta: Ekinion =         0.000000
siesta: Eharris =    -16121.054499
siesta: Etot    =    -16121.054502
siesta: FreeEng =    -16121.098447

siesta: Final energy (eV):
siesta:  Band Struct. =   -2641.721890
siesta:       Kinetic =    4637.069984
siesta:       Hartree =   17294.652827
siesta:         Edftu =       0.000000
siesta:       Eso     =       0.000000
siesta:    Ext. field =       0.000000
siesta:         Exch. =   -2668.329562
siesta:         Corr. =    -159.861792
siesta:     Bulk bias =       0.000000
siesta:   Exch.-corr. =   -2828.191354
siesta:  Ion-electron =  -39843.968918
siesta:       Ion-ion =    4619.382960
siesta:       Ekinion =       0.000000
siesta: D3 dispersion =       0.000000
siesta:         Total =  -16121.054502
siesta:         Fermi =      -4.916951

siesta: Atomic forces (eV/Ang):
siesta:      1    0.179962    0.620074    0.620081
siesta:      2    0.591070   -0.824816   -0.824820
siesta:      3   -0.386800    0.290344   -0.087125
siesta:      4   -0.386798   -0.087117    0.290347
siesta: ----------------------------------------
siesta:    Tot   -0.002567   -0.001515   -0.001516

siesta: Stress tensor (static) (eV/Ang**3):
siesta:     0.000094   -0.000059   -0.000059
siesta:    -0.000059    0.000280    0.000150
siesta:    -0.000059    0.000150    0.000280

siesta: Cell volume =       8000.000000 Ang**3

siesta: Pressure (static):
siesta:                Solid            Molecule  Units
siesta:          -0.00000238          0.00000001  Ry/Bohr**3
siesta:          -0.00021832          0.00000094  eV/Ang**3
siesta:          -0.34978004          0.00149934  kBar
(Free)E+ p_basis*V_orbitals  =      -16117.124957
(Free)Eharris+ p_basis*V_orbitals  =      -16117.124954

siesta: Electric dipole (a.u.)  =   -0.196425    0.031440    0.031439
siesta: Electric dipole (Debye) =   -0.499261    0.079914    0.079910

cite: Please indicate the Siesta version in published work: 5.2.2
cite: This calculation has made use of features in the following articles
cite: which we encourage you to cite in published work.
cite: (Please see "AuRel.bib" for a BibTeX file.)
        Primary SIESTA paper
          DOI: www.doi.org/10.1088/0953-8984/14/11/302
        PSML pseudopotential format
          DOI: www.doi.org/10.1016/j.cpc.2018.02.011

Routine            Calls   Time/call    Tot.time        %
siesta                 1     883.539     883.539   100.00
Setup                  1       0.141       0.141     0.02
bands                  1       0.000       0.000     0.00
KSV_init               1       0.000       0.000     0.00
IterGeom              16      55.212     883.389    99.98
geom_init             16       5.058      80.924     9.16
state_init            16       0.025       0.394     0.04
hsparse               16       0.000       0.005     0.00
overlap               16       0.023       0.368     0.04
Setup_H0              16       2.593      41.488     4.70
naefs                 32       0.000       0.002     0.00
dnaefs                32       0.000       0.001     0.00
MolMec                32       0.000       0.000     0.00
kinefsm               32       0.012       0.389     0.04
nlefsm                32       0.051       1.645     0.19
DHSCF_Init            16       2.476      39.619     4.48
DHSCF1                16       0.108       1.721     0.19
InitMesh              16       0.107       1.720     0.19
INITMESH              16       0.000       0.000     0.00
DHSCF2                16       2.369      37.898     4.29
REMESH                16       0.093       1.487     0.17
REORD                904       0.021      19.162     2.17
PHION                 16       0.827      13.231     1.50
COMM_BSC            1376       0.018      24.989     2.83
POISON               348       1.025     356.658    40.37
fft                  696       0.421     292.844    33.14
setup_H              316       2.473     781.353    88.43
DHSCF                332       2.530     839.801    95.05
DHSCF3               332       2.468     819.525    92.75
rhoofd               332       0.164      54.549     6.17
XC                   332       0.875     290.369    32.86
GXC-CellXC           332       0.811     269.223    30.47
gridxc@cellXC        332       0.811     269.218    30.47
vmat                 332       0.111      36.853     4.17
IterSCF              300       2.478     743.316    84.13
compute_dm           300       0.003       0.840     0.10
diagon               300       0.003       0.832     0.09
r-eigvec             300       0.002       0.467     0.05
r-buildHS            300       0.000       0.009     0.00
rdiag                300       0.002       0.457     0.05
rdiag1               300       0.000       0.017     0.00
rdiag2               300       0.000       0.042     0.00
rdiag3               300       0.001       0.299     0.03
rdiag4               300       0.000       0.091     0.01
r-buildD             300       0.001       0.348     0.04
MIXER                284       0.000       0.022     0.00
PostSCF               16       3.692      59.076     6.69
FINAL_HF              16       3.692      59.075     6.69
DHSCF4                16       1.267      20.275     2.29
dfscf                 16       0.908      14.534     1.64
overfsm               16       0.002       0.039     0.00
writeHSX              16       0.000       0.007     0.00
state_analysis        16       0.001       0.010     0.00
siesta_move           16       0.003       0.051     0.01
Analysis               1       0.003       0.003     0.00
optical                1       0.000       0.000     0.00

>> End of run:   1-JUL-2025  18:58:46
Job completed
Job completed