 NOTE: Siesta V5 introduces some new defaults for basis-set generation
 NOTE: which might lead to slightly different numerical results.
 NOTE: Please see the manual for full details and compatibility measures.

reinit: Reading from file optimization.fdf

reinit: -----------------------------------------------------------------------
reinit: System Name:
reinit: -----------------------------------------------------------------------
reinit: System Label: AuRel
reinit: -----------------------------------------------------------------------

initatom: Reading input for the pseudopotentials and atomic orbitals ----------
Species number:   1 Atomic number:   79 Label: Au

Ground state valence configuration (from tables):   6s01  6p00  5d10  5f00

---- Processing specs for species: Au
Reading pseudopotential information in PSML from:
  Au.psml
PSML file version: 1.1
GGA--PBE XC_GGA_X_PBE--XC_GGA_C_PBE pb
PSML uuid: fa497b30-be45-11e7-41fb-494093d7a025
Semicore shell(s) with  8 electrons included in the valence for Au

---- Pseudopotential check for Au

Pseudized shells:
5s( 2.00) rc: 1.46
5p( 6.00) rc: 1.56
5d(10.00) rc: 1.56
5f( 0.00) rc: 1.60
Valence configuration for ps generation: 5s:5p:5d:6s: Total charge:  19.000000
Semicore shell(s): 5s 5p
Fallback to non-perturbative polarization scheme for Au
Please see the manual if this is not desired in principle
For Au, standard SIESTA heuristics set lmxkb to 3
 (one more than the basis l, including polarization orbitals).
Use PS.lmax or PS.KBprojectors blocks to override.

<basis_specs>
Au                   Z=  79    Mass=  196.97        Charge= 0.17977+309
Lmxo=2 Lmxkb= 3    BasisType=split      Semic=T
L=0  Nsemic=1  Cnfigmx=6
          i=1  nzeta=1  polorb=0  (5s)  (semicore shell)
            splnorm:   0.15000
               vcte:    40.000
               rinn:  -0.90000
               qcoe:    0.0000
               qyuk:    0.0000
               qwid:   0.10000E-01
                rcs:    0.0000
            lambdas:    1.0000
          i=2  nzeta=2  polorb=0  (6s)  (to be polarized non-perturbatively)
            splnorm:   0.15000
               vcte:    40.000
               rinn:  -0.90000
               qcoe:    0.0000
               qyuk:    0.0000
               qwid:   0.10000E-01
                rcs:    0.0000      0.0000
            lambdas:    1.0000      1.0000
L=1  Nsemic=1  Cnfigmx=6
          i=1  nzeta=1  polorb=0  (5p)  (semicore shell)
            splnorm:   0.15000
               vcte:    40.000
               rinn:  -0.90000
               qcoe:    0.0000
               qyuk:    0.0000
               qwid:   0.10000E-01
                rcs:    0.0000
            lambdas:    1.0000
          i=2  nzeta=1  polorb=0  (6p)  (non-perturbative polarization shell)
            splnorm:   0.15000
               vcte:    40.000
               rinn:  -0.90000
               qcoe:    0.0000
               qyuk:   0.49407-323
               qwid:   0.44466-322
                rcs:    0.0000
            lambdas:    1.0000
L=2  Nsemic=0  Cnfigmx=5
          i=1  nzeta=2  polorb=0  (5d)
            splnorm:   0.15000
               vcte:    40.000
               rinn:  -0.90000
               qcoe:    0.0000
               qyuk:    0.0000
               qwid:   0.10000E-01
                rcs:    0.0000      0.0000
            lambdas:    1.0000      1.0000
L=0  Nkbl=2  erefs: 0.17977+309 0.17977+309
L=1  Nkbl=2  erefs: 0.17977+309 0.17977+309
L=2  Nkbl=1  erefs: 0.17977+309
L=3  Nkbl=1  erefs: 0.17977+309
</basis_specs>

Using PAO.SplitTailNorm
atom: Called for Au                    (Z =  79)
Maximum radius (at nrval) set to   50.00000 8518

read_vps: Pseudopotential generation method:
read_vps: ONCVPSP-3.Hamann's oncvpsp
Valence charge in pseudo generation:   19.00000

read_vps: Pseudopotential includes a core correction:
read_vps: Pseudo-core for xc-correction

xc_check: Exchange-correlation functional:
xc_check: GGA Perdew, Burke & Ernzerhof 1996
Got Vlocal (oncv-fit) from psml data
Choosing vlocal chloc cutoff:  5.037181
qtot up to nchloc:   18.99999407
atom: Maximum radius for chlocal:    5.03718
atom: Maximum radius for r*vlocal+2*Zval:    5.03718
Reading KB projs from Au psml data
Using scalar-relativistic projectors in PSML file

PSML: Kleinman-Bylander projectors:
   l= 0   rc=  1.474132   Ekb= 18.815768
   l= 0   rc=  1.474132   Ekb= -0.390506
   l= 1   rc=  1.583336   Ekb=  4.781134
   l= 1   rc=  1.583336   Ekb= -3.699696
   l= 2   rc=  1.583336   Ekb=  2.968821
   l= 2   rc=  1.583336   Ekb=  0.574456
   l= 3   rc=  1.622038   Ekb=  2.312314

PSML: Total number of  Kleinman-Bylander projectors:  25
atom: -------------------------------------------------------------------------

atom: SANKEY-TYPE ORBITALS:
atom: Selected multiple-zeta basis: split

SPLIT: Orbitals with angular momentum L= 0

SPLIT: Basis orbitals for state 5s

SPLIT: PAO cut-off radius determined from an
SPLIT: energy shift=  0.000735 Ry
Split based on tail norm

   izeta = 1
                 lambda =    1.000000
                     rc =    2.925359
                 energy =   -7.964134
                kinetic =    2.893592
    potential(screened) =  -10.857725
       potential(ionic) =  -37.457701

SPLIT: Basis orbitals for state 6s

[...]

   izeta = 2
                 rmatch =    4.927355
              splitnorm =    0.150000
                 energy =   -0.413505
                kinetic =    2.478661
    potential(screened) =   -2.892166
       potential(ionic) =  -20.911581

[...]

SPLIT: Basis orbitals for state 5p

[...]

SPLIT: Basis orbitals for state 6p
SPLIT: Non-perturbative polarization orbs for state 6s
SPLIT: rc(1st zeta) (re)set to: 8.0332 (expansion factor: 1.0000)
Split based on tail norm

[...]

SPLIT: Orbitals with angular momentum L= 2

SPLIT: Basis orbitals for state 5d

SPLIT: PAO cut-off radius determined from an
SPLIT: energy shift=  0.000735 Ry
Split based on tail norm

   izeta = 1
                 lambda =    1.000000
                     rc =    6.393405
                 energy =   -0.504592
                kinetic =    4.935315
    potential(screened) =   -5.439906
       potential(ionic) =  -26.571989

   izeta = 2
                 rmatch =    3.462344
              splitnorm =    0.150000
                 energy =   -0.397189
                kinetic =    6.101362
    potential(screened) =   -6.498551
       potential(ionic) =  -29.253309
atom: Total number of Sankey-type orbitals: 19

atm_pop: Valence configuration (for local Pseudopot. screening):
 5s( 2.00) 6s( 1.00)
 5p( 6.00) 6p( 0.00)
 5d(10.00)
Vna: chval, zval:   19.00000  19.00000

Vna:  Cut-off radius for the neutral-atom potential:   8.033223
comcore: Pseudo-core radius Rcore=  2.583037

atom: _________________________________________________________________________

prinput: Basis input

PAO.BasisType split

%block ChemicalSpeciesLabel
    1   79 Au                      # Species index, atomic number, species label
%endblock ChemicalSpeciesLabel

%block PAO.Basis                 # Define Basis set
# WARNING: This information might be incomplete!
Au                    5                    # Species label, number of l-shells
 n=5   0   1                         # n, l, Nzeta
   2.925
   1.000
 n=6   0   2                         # n, l, Nzeta
   8.033      4.927
   1.000      1.000
 n=5   1   1                         # n, l, Nzeta
   3.518
   1.000
 n=6   1   1                         # n, l, Nzeta
   8.033
   1.000
 n=5   2   2                         # n, l, Nzeta
   6.393      3.462
   1.000      1.000
%endblock PAO.Basis

prinput: ----------------------------------------------------------------------

Dumping basis to NetCDF file Au.ion.nc
coor:   Atomic-coordinates input format  =     Cartesian coordinates
coor:                                          (in Angstroms)

siesta: Atomic coordinates (Bohr) and species
siesta:      0.46382   0.26205   0.26205  1        1
siesta:      0.55115   4.22624   4.22624  1        2
siesta:      4.07415   0.22947   4.14540  1        3
siesta:      4.07415   4.14540   0.22946  1        4
siesta:      6.14288   6.97963   6.97963  1        5
siesta:      7.44455   0.18889   0.18889  1        6
siesta:      0.37813   7.54295   0.40729  1        7
siesta:      0.37814   0.40729   7.54295  1        8
siesta:      8.02583   3.81745   3.81745  1        9
siesta:      0.00000   3.94129   9.93416  1       10
siesta:      9.93416   0.00000   3.94129  1       11

siesta: System type = molecule

initatomlists: Number of atoms, orbitals, and projectors:     11   209   275

coxmol: Writing XMOL coordinates into file AuRel.xyz

siesta: ******************** Simulation parameters ****************************
siesta:
siesta: The following are some of the parameters of the simulation.
siesta: A complete list of the parameters used, including default values,
siesta: can be found in file out.fdf
siesta:
redata: Spin configuration                          = none
redata: Number of spin components                   = 1
redata: Time-Reversal Symmetry                      = T
redata: Spin spiral                                 = F
redata: Long output                                 =   F
redata: Number of Atomic Species                    =        1
redata: Charge density info will appear in .RHO file
redata: Write Mulliken charges (when)               = none
redata: Write Mulliken Pop.                         = NO
redata: Write Hirshfeld charges (when)              = none
redata: Write Voronoi charges (when)                = none
redata: Write spin charge (when)                    = none
redata: Matel table size (NRTAB)                    =     1024
redata: Mesh Cutoff                                 =   300.0000 Ry
redata: Net charge of the system                    =     0.0000 |e|
redata: Min. number of SCF Iter                     =        0
redata: Max. number of SCF Iter                     =     1000
redata: SCF convergence failure will abort job
redata: SCF mix quantity                            = Hamiltonian
redata: Mix DM or H after convergence               =   F
redata: Recompute H after scf cycle                 =   F
redata: Mix DM in first SCF step                    =   T
redata: Write Pulay info on disk                    =   F
redata: New DM Occupancy tolerance                  = 0.000000000001
redata: No kicks to SCF
redata: DM Mixing Weight for Kicks                  =     0.5000
redata: Require Harris convergence for SCF          =   F
redata: Harris energy tolerance for SCF             =     0.000100 eV
redata: Require DM convergence for SCF              =   T
redata: DM tolerance for SCF                        =     0.000100
redata: Require EDM convergence for SCF             =   F
redata: EDM tolerance for SCF                       =     0.001000 eV
redata: Require H convergence for SCF               =   T
redata: Hamiltonian tolerance for SCF               =     0.001000 eV
redata: Require (free) Energy convergence for SCF   =   F
redata: (free) Energy tolerance for SCF             =     0.000100 eV
redata: Using DFT-D3 dispersion                     =   F
redata: Using Saved Data (generic)                  =   F
[...]
redata: ***********************************************************************

%block SCF.Mixers
  Pulay
%endblock SCF.Mixers

%block SCF.Mixer.Pulay
  # Mixing method
  method pulay
  variant stable

  # Mixing options
  weight 0.2500
  weight.linear 0.2500
  history 2
%endblock SCF.Mixer.Pulay

DM_history_depth set to one: no extrapolation allowed by default for geometry relaxation
Size of DM history Fstack: 1
Total number of electrons:   209.000000
Total ionic charge:   209.000000

siesta: k-grid: Number of k-points = 1
siesta: k-point is Gamma-only

diag: Algorithm                                     = D&C
diag: Used triangular part                          = Lower
diag: Absolute tolerance                            =  0.100E-15
diag: Orthogonalization factor                      =  0.100E-05

ts: **************************************************************
ts: Save H and S matrices                           =    F
ts: Save DM and EDM matrices                        =    F
ts: Only save the overlap matrix S                  =    F
ts: **************************************************************

************************ Begin: TS CHECKS AND WARNINGS ************************
************************ End: TS CHECKS AND WARNINGS **************************

                        Begin CG opt. move =      0

outcell: Unit cell vectors (Ang):
       20.000000    0.000000    0.000000
        0.000000   20.000000    0.000000
        0.000000    0.000000   20.000000

outcell: Cell vector modules (Ang)   :   20.000000   20.000000   20.000000
outcell: Cell angles (23,13,12) (deg):     90.0000     90.0000     90.0000
outcell: Cell volume (Ang**3)        :   8000.0000
<dSpData1D:S at geom step 0
  <sparsity:sparsity for geom step 0
    nrows_g=209 nrows=209 sparsity=.8242 nnzs=36003, refcount: 7>
  <dData1D:(new from dSpData1D) n=36003, refcount: 1>
refcount: 1>
new_DM -- step:     1
Initializing Density Matrix...

Attempting to read DM from file... Failed...
DM filled with atomic data:
<dSpData2D:DM initialized from atoms
  <sparsity:sparsity for geom step 0
    nrows_g=209 nrows=209 sparsity=.8242 nnzs=36003, refcount: 8>
  <dData2D:DM n=36003 m=1, refcount: 1>
refcount: 1>
No. of atoms with KB's overlaping orbs in proc 0. Max # of overlaps:      11     119

InitMesh: MESH = 216 x 216 x 216 = 10077696
InitMesh: Mesh cutoff (required, used) =   300.000   322.366 Ry
New grid distribution [1]: sub = 2

stepf: Fermi-Dirac step function

siesta: Program's energy decomposition (eV):
siesta: Ebs     =     -8473.028325
siesta: Eions   =     55855.935748
siesta: Ena     =      5619.517337
siesta: Ekin    =     12345.001984
siesta: Enl     =       745.324979
siesta: Eso     =         0.000000
siesta: Edftu   =         0.000000
siesta: DEna    =       493.197827
siesta: DUscf   =        27.829052
siesta: DUext   =         0.000000
siesta: Ex      =     -7255.785374
siesta: Ec      =      -441.252136
siesta: Exc     =     -7697.037511
siesta: EbV     =         0.000000
siesta: eta*DQ  =         0.000000
siesta: Emadel  =         0.000000
siesta: Emeta   =         0.000000
siesta: Emolmec =         0.000000
siesta: Ekinion =         0.000000
siesta: Eharris =    -44263.915196
siesta: Etot    =    -44322.102079
siesta: FreeEng =    -44322.136749

SCF Convergence by DM+H criterion
max |DM_out - DM_in|         :     0.0000504906
max |H_out - H_in|      (eV) :     0.0007058556
SCF cycle converged after 20 iterations

Using DM_out to compute the final energy and forces
No. of atoms with KB's overlaping orbs in proc 0. Max # of overlaps:      11     119

siesta: E_KS(eV) =           -44337.6925

siesta: E_KS - E_eggbox =    -44337.6925

siesta: Atomic forces (eV/Ang):
   Tot   -0.001646   -0.000222   -0.000464
   Max    7.899768
   Res    3.110056    sqrt( Sum f_i^2 / 3N )
   Max    7.899768    constrained

Stress tensor Voigt[x,y,z,yz,xz,xy] (kbar):       -1.64       -5.80       -2.56       -1.41       -0.44        2.19
(Free)E + p*V (eV/cell)   -44321.0850
Target enthalpy (eV/cell)   -44337.7272

[...]

outcell: Cell vector modules (Ang)   :   20.000000   20.000000   20.000000
outcell: Cell angles (23,13,12) (deg):     90.0000     90.0000     90.0000
outcell: Cell volume (Ang**3)        :   8000.0000
<dSpData1D:S at geom step 1
  <sparsity:sparsity for geom step 1
    nrows_g=209 nrows=209 sparsity=.8194 nnzs=35793, refcount: 7>
  <dData1D:(new from dSpData1D) n=35793, refcount: 1>
refcount: 1>
new_DM -- step:     2
Re-using DM from previous geometries...
Number of DMs in history: 1
 DM extrapolation coefficients:
1   1.00000
New DM after history re-use:
<dSpData2D:SpM extrapolated using coords
  <sparsity:sparsity for geom step 1
    nrows_g=209 nrows=209 sparsity=.8194 nnzs=35793, refcount: 9>
  <dData2D:(temp array for extrapolation) n=35793 m=1, refcount: 1>
refcount: 1>
No. of atoms with KB's overlaping orbs in proc 0. Max # of overlaps:      11     114

[...]

        iscf     Eharris(eV)        E_KS(eV)     FreeEng(eV)     dDmax    Ef(eV) dHmax(eV)
   scf:    1   -44339.522333   -44339.124119   -44339.158776  0.163553 -4.831403  1.022055
   scf:    2   -44338.273956   -44338.878594   -44338.913251  0.141120 -4.971254  3.181960
   scf:    3   -44339.201667   -44339.154513   -44339.189170  0.113198 -4.868135  0.145928
   scf:    4   -44339.155610   -44339.155247   -44339.189905  0.005854 -4.869955  0.038751
   scf:    5   -44339.155430   -44339.155353   -44339.190010  0.002150 -4.869050  0.024434
   scf:    6   -44339.155419   -44339.155390   -44339.190047  0.001093 -4.868390  0.012823
   scf:    7   -44339.155415   -44339.155404   -44339.190061  0.000733 -4.867694  0.008615
   scf:    8   -44339.155414   -44339.155410   -44339.190067  0.000395 -4.867248  0.005547
   scf:    9   -44339.155413   -44339.155411   -44339.190069  0.000216 -4.866940  0.003941
   scf:   10   -44339.155413   -44339.155412   -44339.190070  0.000119 -4.866762  0.002756
   scf:   11   -44339.155413   -44339.155413   -44339.190070  0.000085 -4.866604  0.001918
   scf:   12   -44339.155413   -44339.155413   -44339.190071  0.000072 -4.866503  0.001253
   scf:   13   -44339.155413   -44339.155413   -44339.190071  0.000052 -4.866432  0.000888

[...]

cgvc: Finished line minimization    1.  Mean atomic displacement =    0.1588

[...]

                        Begin CG opt. move =     15

outcell: Unit cell vectors (Ang):
       20.000000    0.000000    0.000000
        0.000000   20.000000    0.000000
        0.000000    0.000000   20.000000

outcell: Cell vector modules (Ang)   :   20.000000   20.000000   20.000000
outcell: Cell angles (23,13,12) (deg):     90.0000     90.0000     90.0000
outcell: Cell volume (Ang**3)        :   8000.0000
<dSpData1D:S at geom step 15
  <sparsity:sparsity for geom step 15
    nrows_g=209 nrows=209 sparsity=.8290 nnzs=36211, refcount: 7>
  <dData1D:(new from dSpData1D) n=36211, refcount: 1>
refcount: 1>
new_DM -- step:    16
Re-using DM from previous geometries...
Number of DMs in history: 1
 DM extrapolation coefficients:
1   1.00000
New DM after history re-use:
<dSpData2D:SpM extrapolated using coords
  <sparsity:sparsity for geom step 15
    nrows_g=209 nrows=209 sparsity=.8290 nnzs=36211, refcount: 9>
  <dData2D:(temp array for extrapolation) n=36211 m=1, refcount: 1>
refcount: 1>
No. of atoms with KB's overlaping orbs in proc 0. Max # of overlaps:      11     118

InitMesh: MESH = 216 x 216 x 216 = 10077696
InitMesh: Mesh cutoff (required, used) =   300.000   322.366 Ry
New grid distribution [1]: sub = 2

        iscf     Eharris(eV)        E_KS(eV)     FreeEng(eV)     dDmax    Ef(eV) dHmax(eV)
   scf:    1   -44341.473007   -44341.525251   -44341.561113  0.080502 -5.022642  0.194437
   scf:    2   -44341.345918   -44341.470487   -44341.509106  0.084557 -5.073790  0.786342
   scf:    3   -44341.535020   -44341.528886   -44341.565213  0.083507 -5.036140  0.058062
   scf:    4   -44341.528744   -44341.529034   -44341.565604  0.009323 -5.038584  0.019201
   scf:    5   -44341.529041   -44341.529048   -44341.565642  0.001963 -5.038548  0.004355
   scf:    6   -44341.528980   -44341.529014   -44341.565654  0.000422 -5.038716  0.002702
   scf:    7   -44341.528915   -44341.528965   -44341.565661  0.000563 -5.038827  0.001548
   scf:    8   -44341.528952   -44341.528959   -44341.565662  0.000131 -5.038803  0.000918
   scf:    9   -44341.528962   -44341.528960   -44341.565662  0.000140 -5.038771  0.000755
   scf:   10   -44341.528957   -44341.528959   -44341.565662  0.000042 -5.038759  0.000280

SCF Convergence by DM+H criterion
max |DM_out - DM_in|         :     0.0000420344
max |H_out - H_in|      (eV) :     0.0002804647
SCF cycle converged after 10 iterations

Using DM_out to compute the final energy and forces
No. of atoms with KB's overlaping orbs in proc 0. Max # of overlaps:      11     118

siesta: E_KS(eV) =           -44341.5290

siesta: Atomic forces (eV/Ang):
   Tot   -0.000823   -0.001579    0.000475
   Max    0.699103
   Res    0.281365    sqrt( Sum f_i^2 / 3N )
   Max    0.699103    constrained

Stress tensor Voigt[x,y,z,yz,xz,xy] (kbar):        0.01       -0.02       -0.27        0.37       -0.21        0.10
(Free)E + p*V (eV/cell)   -44341.1104
Target enthalpy (eV/cell)   -44341.5657

cgvc: Finished line minimization    5.  Mean atomic displacement =    0.1580

outcoor: Final (unrelaxed) atomic coordinates (Ang):
    0.42016754    0.21622849    0.62688274   1       1  Au
    0.50090978    2.44764168    2.42149663   1       2  Au
    2.52793178   -0.09067758    2.29662891   1       3  Au
    2.13915070    2.29510707   -0.00133762   1       4  Au
    2.71937365    3.65338955    3.58476114   1       5  Au
    3.94464058    0.20869915   -0.14795763   1       6  Au
    0.01031758    3.98503499    0.44322321   1       7  Au
    0.19997327   -0.02160006    3.65776733   1       8  Au
    4.20626213    2.05680086    2.13092151   1       9  Au
    0.01170336    2.51158093    4.97083960   1      10  Au
    5.26266358   -0.46623465    2.07012407   1      11  Au

coxmol: Writing XMOL coordinates into file AuRel.xyz

siesta: Program's energy decomposition (eV):
siesta: Ebs     =     -7372.979558
siesta: Eions   =     55855.935748
siesta: Ena     =      5626.607768
siesta: Ekin    =     12737.690911
siesta: Enl     =       752.308257
siesta: Eso     =         0.000000
siesta: Edftu   =         0.000000
siesta: DEna    =       176.040736
siesta: DUscf   =         4.104569
siesta: DUext   =         0.000000
siesta: Ex      =     -7339.033789
siesta: Ec      =      -443.311662
siesta: Exc     =     -7782.345451
siesta: EbV     =         0.000000
siesta: eta*DQ  =         0.000000
siesta: Emadel  =         0.000000
siesta: Emeta   =         0.000000
siesta: Emolmec =         0.000000
siesta: Ekinion =         0.000000
siesta: Eharris =    -44341.528957
siesta: Etot    =    -44341.528959
siesta: FreeEng =    -44341.565662

siesta: Final energy (eV):
siesta:  Band Struct. =   -7372.979558
siesta:       Kinetic =   12737.690911
siesta:       Hartree =   68998.674107
siesta:         Edftu =       0.000000
siesta:       Eso     =       0.000000
siesta:    Ext. field =       0.000000
siesta:         Exch. =   -7339.033789
siesta:         Corr. =    -443.311662
siesta:     Bulk bias =       0.000000
siesta:   Exch.-corr. =   -7782.345451
siesta:  Ion-electron = -152534.464678
siesta:       Ion-ion =   34238.916152
siesta:       Ekinion =       0.000000
siesta: D3 dispersion =       0.000000
siesta:         Total =  -44341.528959
siesta:         Fermi =      -5.038759

siesta: Atomic forces (eV/Ang):
siesta:      1   -0.057834    0.059639    0.297156
siesta:      2    0.366953   -0.603215   -0.127474
siesta:      3   -0.084681   -0.223992    0.103464
siesta:      4   -0.055955    0.043964    0.291099
siesta:      5   -0.165781   -0.211404   -0.054964
siesta:      6   -0.311765    0.310039   -0.230942
siesta:      7   -0.095925    0.380228   -0.699103
siesta:      8    0.044304    0.403163   -0.187004
siesta:      9   -0.046641    0.384627   -0.027175
siesta:     10    0.031861   -0.149244    0.381386
siesta:     11    0.374641   -0.395384    0.254033
siesta: ----------------------------------------
siesta:    Tot   -0.000823   -0.001579    0.000475

siesta: Stress tensor (static) (eV/Ang**3):
siesta:     0.000007    0.000060   -0.000133
siesta:     0.000060   -0.000010    0.000230
siesta:    -0.000133    0.000230   -0.000167

siesta: Cell volume =       8000.000000 Ang**3

siesta: Pressure (static):
siesta:                Solid            Molecule  Units
siesta:           0.00000062          0.00000002  Ry/Bohr**3
siesta:           0.00005691          0.00000229  eV/Ang**3
siesta:           0.09117904          0.00366649  kBar
(Free)E+ p_basis*V_orbitals  =      -44328.543284
(Free)Eharris+ p_basis*V_orbitals  =      -44328.543283

siesta: Electric dipole (a.u.)  =   -0.206167   -0.420589   -0.066071
siesta: Electric dipole (Debye) =   -0.524025   -1.069030   -0.167935

cite: Please indicate the Siesta version in published work: 5.2.2
cite: This calculation has made use of features in the following articles
cite: which we encourage you to cite in published work.
cite: (Please see "AuRel.bib" for a BibTeX file.)
        Primary SIESTA paper
          DOI: www.doi.org/10.1088/0953-8984/14/11/302
        PSML pseudopotential format
          DOI: www.doi.org/10.1016/j.cpc.2018.02.011

Routine            Calls   Time/call    Tot.time        %
siesta                 1    1531.002    1531.002   100.00
Setup                  1       0.145       0.145     0.01
bands                  1       0.000       0.000     0.00
KSV_init               1       0.000       0.000     0.00
IterGeom              16      95.678    1530.847    99.99
geom_init             16      11.701     187.220    12.23
state_init            16       0.046       0.730     0.05
hsparse               16       0.002       0.039     0.00
overlap               16       0.040       0.643     0.04
Setup_H0              16       6.137      98.194     6.41
naefs                 32       0.000       0.003     0.00
dnaefs                32       0.000       0.002     0.00
MolMec                32       0.000       0.000     0.00
kinefsm               32       0.028       0.907     0.06
nlefsm                32       0.098       3.128     0.20
DHSCF_Init            16       5.967      95.474     6.24
DHSCF1                16       0.155       2.480     0.16
InitMesh              16       0.155       2.479     0.16
INITMESH              16       0.000       0.000     0.00
DHSCF2                16       5.812      92.993     6.07
REMESH                16       0.387       6.191     0.40
REORD                706       0.026      18.374     1.20
PHION                 16       3.432      54.905     3.59
COMM_BSC             980       0.022      21.657     1.41
POISON               249       1.328     330.741    21.60
fft                  498       0.527     262.307    17.13
setup_H              217       5.748    1247.227    81.46
DHSCF                233       6.092    1419.320    92.71
DHSCF3               233       5.733    1335.803    87.25
rhoofd               233       1.034     240.918    15.74
XC                   233       2.292     534.109    34.89
GXC-CellXC           233       2.190     510.175    33.32
gridxc@cellXC        233       2.190     510.171    33.32
vmat                 233       0.700     163.058    10.65
IterSCF              201       5.818    1169.449    76.38
compute_dm           201       0.051      10.183     0.67
diagon               201       0.050      10.136     0.66
r-eigvec             201       0.027       5.474     0.36
r-buildHS            201       0.000       0.061     0.00
rdiag                201       0.027       5.412     0.35
rdiag1               201       0.001       0.186     0.01
rdiag2               201       0.003       0.565     0.04
rdiag3               201       0.016       3.251     0.21
rdiag4               201       0.007       1.371     0.09
r-buildD             201       0.023       4.594     0.30
MIXER                185       0.001       0.099     0.01
PostSCF               16      10.881     174.097    11.37
FINAL_HF              16      10.881     174.096    11.37
DHSCF4                16       5.220      83.517     5.46
dfscf                 16       4.471      71.543     4.67
overfsm               16       0.019       0.296     0.02
writeHSX              16       0.001       0.015     0.00
state_analysis        16       0.001       0.012     0.00
siesta_move           16       0.004       0.059     0.00
Analysis               1       0.004       0.004     0.00
optical                1       0.000       0.000     0.00

>> End of run:   1-JUL-2025  22:17:28
Job completed
Job completed