 NOTE: Siesta V5 introduces some new defaults for basis-set generation
 NOTE: which might lead to slightly different numerical results.
 NOTE: Please see the manual for full details and compatibility measures.

reinit: Reading from file relaxation.fdf

reinit: -----------------------------------------------------------------------
reinit: System Name:
reinit: -----------------------------------------------------------------------
reinit: System Label: relaxation
reinit: -----------------------------------------------------------------------

initatom: Reading input for the pseudopotentials and atomic orbitals ----------
Species number:   1 Atomic number:   22 Label: Ti
Species number:   2 Atomic number:    8 Label: O

Ground state valence configuration (from tables):   4s02  4p00  3d02  4f00
Ground state valence configuration (from tables):   2s02  2p04  3d00  4f00

---- Processing specs for species: Ti
Reading pseudopotential information in PSML from:
  Ti.psml
PSML file version: 1.1
GGA--PBE XC_GGA_X_PBE--XC_GGA_C_PBE pb
PSML uuid: caed23e0-be41-11e7-4603-0bd897f88bea
Semicore shell(s) with  8 electrons included in the valence for Ti

---- Processing specs for species: O
Reading pseudopotential information in PSML from:
  O.psml
PSML file version: 1.1
GGA--PBE XC_GGA_X_PBE--XC_GGA_C_PBE pb
PSML uuid: 3cff85a0-be41-11e7-6c5c-1b1fe64d18ef

---- Pseudopotential check for Ti

Pseudized shells:
3s( 2.00) rc: 1.36
3p( 6.00) rc: 1.31
3d( 2.00) rc: 1.66
Valence configuration for ps generation: 3s:3p:3d:4s: Total charge:  12.000000
Semicore shell(s): 3s 3p
Fallback to non-perturbative polarization scheme for Ti
Please see the manual if this is not desired in principle

---- Pseudopotential check for O

Pseudized shells:
2s( 2.00) rc: 1.36
2p( 4.00) rc: 1.46
3d( 0.00) rc: 1.26
Valence configuration for ps generation: 2s:2p: Total charge:   6.000000
For Ti, standard SIESTA heuristics set lmxkb to 3
 (one more than the basis l, including polarization orbitals).
Use PS.lmax or PS.KBprojectors blocks to override.
For O, standard SIESTA heuristics set lmxkb to 3
 (one more than the basis l, including polarization orbitals).
Use PS.lmax or PS.KBprojectors blocks to override.
Ti pseudopotential only contains V_ls up to l=2 -- lmxkb reset.
O pseudopotential only contains V_ls up to l=2 -- lmxkb reset.

<basis_specs>
Ti                   Z=  22    Mass=  47.867        Charge= 0.17977+309
Lmxo=2 Lmxkb= 2    BasisType=split      Semic=T
L=0  Nsemic=1  Cnfigmx=4
          i=1  nzeta=1  polorb=0  (3s)  (semicore shell)
            splnorm:   0.15000
               vcte:    40.000
               rinn:  -0.90000
               qcoe:    0.0000
               qyuk:    0.0000
               qwid:   0.10000E-01
                rcs:    0.0000
            lambdas:    1.0000
          i=2  nzeta=2  polorb=0  (4s)  (to be polarized non-perturbatively)
            splnorm:   0.15000
               vcte:    40.000
               rinn:  -0.90000
               qcoe:    0.0000
               qyuk:    0.0000
               qwid:   0.10000E-01
                rcs:    0.0000      0.0000
            lambdas:    1.0000      1.0000
L=1  Nsemic=1  Cnfigmx=4
          i=1  nzeta=1  polorb=0  (3p)  (semicore shell)
            splnorm:   0.15000
               vcte:    40.000
               rinn:  -0.90000
               qcoe:    0.0000
               qyuk:    0.0000
               qwid:   0.10000E-01
                rcs:    0.0000
            lambdas:    1.0000
          i=2  nzeta=1  polorb=0  (4p)  (non-perturbative polarization shell)
            splnorm:   0.15000
               vcte:    40.000
               rinn:  -0.90000
               qcoe:   0.19310-311
               qyuk:   0.19763-322
               qwid:   0.21220-312
                rcs:    0.0000
            lambdas:    1.0000
L=2  Nsemic=0  Cnfigmx=3
          i=1  nzeta=2  polorb=0  (3d)
            splnorm:   0.15000
               vcte:    40.000
               rinn:  -0.90000
               qcoe:    0.0000
               qyuk:    0.0000
               qwid:   0.10000E-01
                rcs:    0.0000      0.0000
            lambdas:    1.0000      1.0000
L=0  Nkbl=2  erefs: 0.17977+309 0.17977+309
L=1  Nkbl=2  erefs: 0.17977+309 0.17977+309
L=2  Nkbl=1  erefs: 0.17977+309
</basis_specs>

Using PAO.SplitTailNorm
atom: Called for Ti                    (Z =  22)
Maximum radius (at nrval) set to   50.00000 8518

read_vps: Pseudopotential generation method:
read_vps: ONCVPSP-3.Hamann's oncvpsp
Valence charge in pseudo generation:   12.00000

read_vps: Pseudopotential includes a core correction:
read_vps: Pseudo-core for xc-correction

xc_check: Exchange-correlation functional:
xc_check: GGA Perdew, Burke & Ernzerhof 1996
Got Vlocal (oncv-fit) from psml data
Choosing vlocal chloc cutoff:  3.029916
qtot up to nchloc:   12.00014688
atom: Maximum radius for chlocal:    3.02992
atom: Maximum radius for r*vlocal+2*Zval:    3.02992
Reading KB projs from Ti psml data
Using scalar-relativistic projectors in PSML file

PSML: Kleinman-Bylander projectors:
   l= 0   rc=  1.375180   Ekb= 22.724697
   l= 0   rc=  1.375180   Ekb=  2.527278
   l= 1   rc=  1.326200   Ekb=  3.950805
   l= 1   rc=  1.327537   Ekb= -0.169333
   l= 2   rc=  1.683555   Ekb=-10.372181
   l= 2   rc=  1.683555   Ekb= -2.954901

PSML: Total number of  Kleinman-Bylander projectors:  18
atom: -------------------------------------------------------------------------

atom: SANKEY-TYPE ORBITALS:
atom: Selected multiple-zeta basis: split

SPLIT: Orbitals with angular momentum L= 0

SPLIT: Basis orbitals for state 3s

SPLIT: PAO cut-off radius determined from an
SPLIT: energy shift=  0.022050 Ry
Split based on tail norm

   izeta = 1
                 lambda =    1.000000
                     rc =    2.635420
                 energy =   -4.579527
                kinetic =    2.326942
    potential(screened) =   -6.906469
       potential(ionic) =  -23.072621

[...]

   izeta = 2
                 rmatch =    5.301264
              splitnorm =    0.150000
                 energy =   -0.140155
                kinetic =    1.418596
    potential(screened) =   -1.558752
       potential(ionic) =  -10.896893

[...]

SPLIT: Basis orbitals for state 3p

[...]

SPLIT: Basis orbitals for state 4p
SPLIT: Non-perturbative polarization orbs for state 4s
SPLIT: rc(1st zeta) (re)set to: 6.8440 (expansion factor: 1.0000)
Split based on tail norm

[...]

SPLIT: Basis orbitals for state 3d

[...]

   izeta = 2
                 rmatch =    3.163483
              splitnorm =    0.150000
                 energy =   -0.141333
                kinetic =    8.704185
    potential(screened) =   -8.845518
       potential(ionic) =  -23.898466
atom: Total number of Sankey-type orbitals: 19

atm_pop: Valence configuration (for local Pseudopot. screening):
 3s( 2.00) 4s( 2.00)
 3p( 6.00) 4p( 0.00)
 3d( 2.00)
Vna: chval, zval:   12.00000  12.00000

Vna:  Cut-off radius for the neutral-atom potential:   6.843982
comcore: Pseudo-core radius Rcore=  1.766828

atom: _________________________________________________________________________

<basis_specs>
O                    Z=   8    Mass=  15.999        Charge= 0.17977+309
Lmxo=2 Lmxkb= 2    BasisType=split      Semic=F
L=0  Nsemic=0  Cnfigmx=2
          i=1  nzeta=2  polorb=0  (2s)
            splnorm:   0.15000
               vcte:    40.000
               rinn:  -0.90000
               qcoe:    0.0000
               qyuk:    0.0000
               qwid:   0.10000E-01
                rcs:    0.0000      0.0000
            lambdas:    1.0000      1.0000
L=1  Nsemic=0  Cnfigmx=2
          i=1  nzeta=2  polorb=1  (2p)  (to be polarized perturbatively)
            splnorm:   0.15000
               vcte:    40.000
               rinn:  -0.90000
               qcoe:    0.0000
               qyuk:    0.0000
               qwid:   0.10000E-01
                rcs:    0.0000      0.0000
            lambdas:    1.0000      1.0000
L=2  Nsemic=0  Cnfigmx=3
          i=1  nzeta=0  polorb=0  (3d)  (perturbative polarization orbital) (from 2p)
L=0  Nkbl=1  erefs: 0.17977+309
L=1  Nkbl=1  erefs: 0.17977+309
L=2  Nkbl=1  erefs: 0.17977+309
</basis_specs>

Using PAO.SplitTailNorm
atom: Called for O                     (Z =   8)
Maximum radius (at nrval) set to   50.00000 8518

read_vps: Pseudopotential generation method:
read_vps: ONCVPSP-3.Hamann's oncvpsp
Valence charge in pseudo generation:    6.00000

read_vps: Pseudopotential includes a core correction:
read_vps: Pseudo-core for xc-correction

xc_check: Exchange-correlation functional:
xc_check: GGA Perdew, Burke & Ernzerhof 1996
Got Vlocal (oncv-fit) from psml data
Choosing vlocal chloc cutoff:  6.020499
qtot up to nchloc:    6.00001015
atom: Maximum radius for chlocal:    6.02050
atom: Maximum radius for r*vlocal+2*Zval:    6.02050
Reading KB projs from O psml data
Using scalar-relativistic projectors in PSML file

PSML: Kleinman-Bylander projectors:
   l= 0   rc=  1.372412   Ekb= 12.113471
   l= 0   rc=  1.372412   Ekb=  1.648048
   l= 1   rc=  1.474132   Ekb= -9.434259
   l= 1   rc=  1.474132   Ekb= -2.298541
   l= 2   rc=  1.277664   Ekb= -2.663910

PSML: Total number of  Kleinman-Bylander projectors:  13
atom: -------------------------------------------------------------------------

atom: SANKEY-TYPE ORBITALS:
atom: Selected multiple-zeta basis: split

[...]

SPLIT: Basis orbitals for state 2s

[...]

SPLIT: Orbitals with angular momentum L= 1

SPLIT: Basis orbitals for state 2p

SPLIT: PAO cut-off radius determined from an
SPLIT: energy shift=  0.022050 Ry
Split based on tail norm

   izeta = 1
                 lambda =    1.000000
                     rc =    3.819866
                 energy =   -0.639970
                kinetic =    4.771237
    potential(screened) =   -5.411207
       potential(ionic) =  -13.142963

   izeta = 2
                 rmatch =    2.601252
              splitnorm =    0.150000
                 energy =   -0.382093
                kinetic =    6.846164
    potential(screened) =   -7.228258
       potential(ionic) =  -15.727266

POLgen: Perturbative polarization orbital with L=  2

POLgen: Polarization orbital for state 2p
Split based on tail norm

   izeta = 1
                     rc =    3.819866
                 energy =    2.500658
                kinetic =    4.605602
    potential(screened) =   -2.104944
       potential(ionic) =   -8.455031
atom: Total number of Sankey-type orbitals: 13

atm_pop: Valence configuration (for local Pseudopot. screening):
 2s( 2.00)
 2p( 4.00)
 3d( 0.00)
Vna: chval, zval:    6.00000   6.00000

Vna:  Cut-off radius for the neutral-atom potential:   3.819866
comcore: Pseudo-core radius Rcore=  1.354557

atom: _________________________________________________________________________

prinput: Basis input

PAO.BasisType split

%block ChemicalSpeciesLabel
    1   22 Ti                      # Species index, atomic number, species label
    2    8 O                       # Species index, atomic number, species label
%endblock ChemicalSpeciesLabel

%block PAO.Basis                 # Define Basis set
# WARNING: This information might be incomplete!
[...]

[...]

outcell: Unit cell vectors (Ang):
        3.782540    0.000000    0.000000
        0.000000    3.782540    0.000000
        0.000000    0.000000    9.615022

outcell: Cell vector modules (Ang)   :    3.782540    3.782540    9.615022
outcell: Cell angles (23,13,12) (deg):     90.0000     90.0000     90.0000
outcell: Cell volume (Ang**3)        :    137.5679
<dSpData1D:S at geom step 0
  <sparsity:sparsity for geom step 0
    nrows_g=180 nrows=180 sparsity=3.7488 nnzs=121460, refcount: 7>
  <dData1D:(new from dSpData1D) n=121460, refcount: 1>
refcount: 1>
new_DM -- step:     1
Initializing Density Matrix...

Attempting to read DM from file... Failed...
DM filled with atomic data:
<dSpData2D:DM initialized from atoms
  <sparsity:sparsity for geom step 0
    nrows_g=180 nrows=180 sparsity=3.7488 nnzs=121460, refcount: 8>
  <dData2D:DM n=121460 m=1, refcount: 1>
refcount: 1>
No. of atoms with KB's overlaping orbs in proc 0. Max # of overlaps:      96     168

InitMesh: MESH = 40 x 40 x 108 = 172800
InitMesh: Mesh cutoff (required, used) =   300.000   309.069 Ry
New grid distribution [1]: sub = 2

stepf: Fermi-Dirac step function

siesta: Program's energy decomposition (eV):
siesta: Ebs     =     -2286.181730
siesta: Eions   =     14881.071237
siesta: Ena     =      2053.907057
siesta: Ekin    =      4893.147266
siesta: Enl     =      -522.028924
siesta: Eso     =         0.000000
siesta: Edftu   =         0.000000
siesta: DEna    =       230.323270
siesta: DUscf   =        59.422089
siesta: DUext   =         0.000000
siesta: Ex      =     -1747.710859
siesta: Ec      =      -120.504229
siesta: Exc     =     -1868.215088
siesta: EbV     =         0.000000
siesta: eta*DQ  =         0.000000
siesta: Emadel  =         0.000000
siesta: Emeta   =         0.000000
siesta: Emolmec =         0.000000
siesta: Ekinion =         0.000000
siesta: Eharris =     -9987.330459
siesta: Etot    =    -10034.515566
siesta: FreeEng =    -10034.515566

SCF Convergence by DM+H criterion
max |DM_out - DM_in|         :     0.0000360950
max |H_out - H_in|      (eV) :     0.0009889347
SCF cycle converged after 14 iterations

Using DM_out to compute the final energy and forces
No. of atoms with KB's overlaping orbs in proc 0. Max # of overlaps:      96     168

siesta: E_KS(eV) =           -10068.9837

siesta: E_KS - E_eggbox =    -10068.9837

siesta: Atomic forces (eV/Ang):
   Tot   -0.000000   -0.000000    0.000001
   Max    0.114869
   Res    0.054150    sqrt( Sum f_i^2 / 3N )
   Max    0.114869    constrained

Stress tensor Voigt[x,y,z,yz,xz,xy] (kbar):       25.86       25.86       44.09       -0.00        0.00       -0.00
(Free)E + p*V (eV/cell)   -10071.7262
Target enthalpy (eV/cell)   -10068.9837

siesta: Stress tensor (static) (eV/Ang**3):
         0.016143    0.000000    0.000000
        -0.000000    0.016143    0.000000
         0.000000   -0.000000    0.027519

siesta: Pressure (static):        -31.93973302  kBar

siesta: Stress tensor (total) (eV/Ang**3):
         0.016143    0.000000    0.000000
        -0.000000    0.016143    0.000000
         0.000000   -0.000000    0.027519

siesta: Pressure (total):        -31.93973302  kBar

cgvc: No target stress found, assuming hydrostatic MD.TargetPressure.

cgvc: Target stress (kBar)
cgvc:        -0.000       0.000       0.000
cgvc:         0.000      -0.000       0.000
cgvc:         0.000       0.000      -0.000

                        Begin CG opt. move =      1
k-point displ. along   1 input, could be:     0.00    0.50
k-point displ. along   2 input, could be:     0.00    0.50
k-point displ. along   3 input, could be:     0.00    0.50
 Kpoints in:          600 . Kpoints trimmed:          560

[...]

outcell: Cell vector modules (Ang)   :    3.748215    3.748215    9.466286
outcell: Cell angles (23,13,12) (deg):     90.0000     90.0000     90.0000
outcell: Cell volume (Ang**3)        :    132.9930
<dSpData1D:S at geom step 1
  <sparsity:sparsity for geom step 1
    nrows_g=180 nrows=180 sparsity=3.7814 nnzs=122516, refcount: 7>
  <dData1D:(new from dSpData1D) n=122516, refcount: 1>
refcount: 1>
new_DM -- step:     2
Re-using DM from previous geometries...
Number of DMs in history: 1
 DM extrapolation coefficients:
1   1.00000
New DM after history re-use:
<dSpData2D:SpM extrapolated using coords
  <sparsity:sparsity for geom step 1
    nrows_g=180 nrows=180 sparsity=3.7814 nnzs=122516, refcount: 9>
  <dData2D:(temp array for extrapolation) n=122516 m=1, refcount: 1>
refcount: 1>
Note: For starting DM, Qtot, Tr[D*S] =         96.00000000         96.14253595
No. of atoms with KB's overlaping orbs in proc 0. Max # of overlaps:      96     168

[...]

        iscf     Eharris(eV)        E_KS(eV)     FreeEng(eV)     dDmax    Ef(eV) dHmax(eV)
   scf:    1   -10066.154961   -10068.911746   -10068.911746  0.029491 -5.556015  0.306309
   scf:    2   -10068.426284   -10068.771069   -10068.771069  0.017297 -5.516147  0.670908
   scf:    3   -10068.957249   -10068.929043   -10068.929043  0.012233 -5.506654  0.068216
   scf:    4   -10068.930326   -10068.929729   -10068.929729  0.001765 -5.487583  0.038584
   scf:    5   -10068.930177   -10068.930000   -10068.930000  0.001943 -5.465664  0.002006
   scf:    6   -10068.930005   -10068.930003   -10068.930003  0.000067 -5.465317  0.001522
   scf:    7   -10068.930005   -10068.930004   -10068.930004  0.000071 -5.464809  0.000870

[...]

outcell: Cell vector modules (Ang)   :    3.771133    3.771133    9.565594
outcell: Cell angles (23,13,12) (deg):     90.0000     90.0000     90.0000
outcell: Cell volume (Ang**3)        :    136.0365
<dSpData1D:S at geom step 2
  <sparsity:sparsity for geom step 2
    nrows_g=180 nrows=180 sparsity=3.7488 nnzs=121460, refcount: 7>
  <dData1D:(new from dSpData1D) n=121460, refcount: 1>
refcount: 1>
new_DM -- step:     3
Re-using DM from previous geometries...
Number of DMs in history: 1
 DM extrapolation coefficients:
1   1.00000
New DM after history re-use:
<dSpData2D:SpM extrapolated using coords
  <sparsity:sparsity for geom step 2
    nrows_g=180 nrows=180 sparsity=3.7488 nnzs=121460, refcount: 9>
  <dData2D:(temp array for extrapolation) n=121460 m=1, refcount: 1>
refcount: 1>
No. of atoms with KB's overlaping orbs in proc 0. Max # of overlaps:      96     168

[...]

cgvc: Finished line minimization    1.  Mean atomic displacement =    0.0192

[...]

cgvc: Finished line minimization    6.  Mean atomic displacement =    0.0004

[...]

                        Begin CG opt. move =     15
k-point displ. along   1 input, could be:     0.00    0.50
k-point displ. along   2 input, could be:     0.00    0.50
k-point displ. along   3 input, could be:     0.00    0.50
 Kpoints in:          600 . Kpoints trimmed:          560

siesta: k-grid: Number of k-points = 560
siesta: k-points from Monkhorst-Pack grid
siesta: k-cutoff (effective) =    18.894 Ang
siesta: k-point supercell and displacements
siesta: k-grid:    10     0     0      0.000
siesta: k-grid:     0    10     0      0.000
siesta: k-grid:     0     0    10      0.000

superc: Internal auxiliary supercell:     5 x     5 x     3  =      75
superc: Number of atoms, orbitals, and projectors:    900  13500  13200

[...]

outcell: Cell vector modules (Ang)   :    3.778787    3.778787    9.497562
outcell: Cell angles (23,13,12) (deg):     90.0000     90.0000     90.0000
outcell: Cell volume (Ang**3)        :    135.6179
<dSpData1D:S at geom step 15
  <sparsity:sparsity for geom step 15
    nrows_g=180 nrows=180 sparsity=3.7567 nnzs=121716, refcount: 7>
  <dData1D:(new from dSpData1D) n=121716, refcount: 1>
refcount: 1>
new_DM -- step:    16
Re-using DM from previous geometries...
Number of DMs in history: 1
 DM extrapolation coefficients:
1   1.00000
New DM after history re-use:
<dSpData2D:SpM extrapolated using coords
  <sparsity:sparsity for geom step 15
    nrows_g=180 nrows=180 sparsity=3.7567 nnzs=121716, refcount: 9>
  <dData2D:(temp array for extrapolation) n=121716 m=1, refcount: 1>
refcount: 1>
No. of atoms with KB's overlaping orbs in proc 0. Max # of overlaps:      96     168

InitMesh: MESH = 40 x 40 x 100 = 160000
InitMesh: Mesh cutoff (required, used) =   300.000   306.392 Ry
New grid distribution [1]: sub = 2

        iscf     Eharris(eV)        E_KS(eV)     FreeEng(eV)     dDmax    Ef(eV) dHmax(eV)
   scf:    1   -10069.009250   -10069.007540   -10069.007540  0.000034 -5.417878  0.000251

SCF Convergence by DM+H criterion
max |DM_out - DM_in|         :     0.0000341016
max |H_out - H_in|      (eV) :     0.0002506574
SCF cycle converged after 1 iterations

Using DM_out to compute the final energy and forces
No. of atoms with KB's overlaping orbs in proc 0. Max # of overlaps:      96     168

siesta: E_KS(eV) =           -10069.0075

siesta: Atomic forces (eV/Ang):
   Tot   -0.000000   -0.000000    0.000000
   Max    0.000656
   Res    0.000285    sqrt( Sum f_i^2 / 3N )
   Max    0.000656    constrained

Stress tensor Voigt[x,y,z,yz,xz,xy] (kbar):       -0.06       -0.06       -0.08        0.00       -0.00        0.00
(Free)E + p*V (eV/cell)   -10069.0021
Target enthalpy (eV/cell)   -10069.0075

siesta: Stress tensor (static) (eV/Ang**3):
        -0.000036   -0.000000   -0.000000
         0.000000   -0.000036    0.000000
        -0.000000    0.000000   -0.000050

siesta: Pressure (static):          0.06479436  kBar

siesta: Stress tensor (total) (eV/Ang**3):
        -0.000036   -0.000000   -0.000000
         0.000000   -0.000036    0.000000
        -0.000000    0.000000   -0.000050

siesta: Pressure (total):          0.06479436  kBar

outcoor: Relaxed atomic coordinates (Ang):
    1.88939360    1.88939357    4.74877867   1       1  Ti
    1.88939357    0.00000001    7.12317088   1       2  Ti
   -0.00000003   -0.00000000    0.00000238   1       3  Ti
    0.00000004    1.88939360    2.37439100   1       4  Ti
   -0.00000002    1.88939365    4.35016918   2       5  O
    1.88939361    1.88939358    6.72455999   2       6  O
    1.88939361   -0.00000003    5.14739419   2       7  O
    0.00000003    0.00000004    7.52178313   2       8  O
    1.88939361    0.00000004    9.09894893   2       9  O
    0.00000000    0.00000005    1.97577715   2      10  O
   -0.00000002    1.88939361    0.39861140   2      11  O
    1.88939358    1.88939355    2.77300339   2      12  O

outcell: Unit cell vectors (Ang):
        3.778787   -0.000000    0.000000
       -0.000000    3.778787    0.000000
        0.000000    0.000000    9.497562

outcell: Cell vector modules (Ang)   :    3.778787    3.778787    9.497562
outcell: Cell angles (23,13,12) (deg):     90.0000     90.0000     90.0000
outcell: Cell volume (Ang**3)        :    135.6179

coxmol: Writing XMOL coordinates into file relaxation.xyz

siesta: Program's energy decomposition (eV):
siesta: Ebs     =     -2235.222514
siesta: Eions   =     14881.071237
siesta: Ena     =      2052.752976
siesta: Ekin    =      4935.821925
siesta: Enl     =      -482.587940
siesta: Eso     =         0.000000
siesta: Edftu   =         0.000000
siesta: DEna    =       158.168829
siesta: DUscf   =         7.926767
siesta: DUext   =         0.000000
siesta: Ex      =     -1738.410374
siesta: Ec      =      -121.608487
siesta: Exc     =     -1860.018861
siesta: EbV     =         0.000000
siesta: eta*DQ  =         0.000000
siesta: Emadel  =         0.000000
siesta: Emeta   =         0.000000
siesta: Emolmec =         0.000000
siesta: Ekinion =         0.000000
siesta: Eharris =    -10069.009250
siesta: Etot    =    -10069.007540
siesta: FreeEng =    -10069.007540

siesta: Final energy (eV):
siesta:  Band Struct. =   -2235.222514
siesta:       Kinetic =    4935.821925
siesta:       Hartree =    2737.093798
siesta:         Edftu =       0.000000
siesta:       Eso     =       0.000000
siesta:    Ext. field =       0.000000
siesta:         Exch. =   -1738.410374
siesta:         Corr. =    -121.608487
siesta:     Bulk bias =       0.000000
siesta:   Exch.-corr. =   -1860.018861
siesta:  Ion-electron =  -10566.930245
siesta:       Ion-ion =   -5314.974157
siesta:       Ekinion =       0.000000
siesta: D3 dispersion =       0.000000
siesta:         Total =  -10069.007540
siesta:         Fermi =      -5.417878

siesta: Stress tensor (static) (eV/Ang**3):
siesta:    -0.000036   -0.000000   -0.000000
siesta:     0.000000   -0.000036    0.000000
siesta:    -0.000000    0.000000   -0.000050

siesta: Constrained stress tensor (static) (eV/Ang**3):
siesta:    -0.000036   -0.000000   -0.000000
siesta:    -0.000000   -0.000036    0.000000
siesta:    -0.000000    0.000000   -0.000050

siesta: Cell volume =        135.617893 Ang**3

siesta: Pressure (static):
siesta:                Solid            Molecule  Units
siesta:           0.00000044          0.00000033  Ry/Bohr**3
siesta:           0.00004044          0.00003002  eV/Ang**3
siesta:           0.06479436          0.04809798  kBar
(Free)E+ p_basis*V_orbitals  =      -10064.959863
(Free)Eharris+ p_basis*V_orbitals  =      -10064.961573

cite: Please see "relaxation.bib" for an exhaustive BiBTeX file.
cite: Please clearly indicate Siesta version in published work: 5.2.1
cite: This calculation has made use of the following articles
cite: which are encouraged to be cited in a published work.
        Primary SIESTA paper
          DOI: www.doi.org/10.1088/0953-8984/14/11/302

Routine            Calls   Time/call    Tot.time        %
siesta                 1   13852.903   13852.903   100.00
Setup                  1       1.046       1.046     0.01
bands                  1       0.000       0.000     0.00
KSV_init               1       0.000       0.000     0.00
IterGeom              16     865.738   13851.812    99.99
geom_init             16       1.857      29.710     0.21
state_init            16       0.152       2.428     0.02
hsparse               16       0.032       0.508     0.00
overlap               16       0.095       1.520     0.01
Setup_H0              16       1.318      21.096     0.15
naefs                 32       0.000       0.008     0.00
dnaefs                32       0.000       0.007     0.00
MolMec                32       0.000       0.000     0.00
kinefsm               32       0.056       1.797     0.01
nlefsm                32       0.222       7.090     0.05
DHSCF_Init            16       0.866      13.849     0.10
DHSCF1                16       0.019       0.306     0.00
InitMesh              16       0.019       0.306     0.00
INITMESH              16       0.000       0.000     0.00
DHSCF2                16       0.846      13.543     0.10
REMESH                16       0.210       3.363     0.02
REORD                462       0.000       0.069     0.00
PHION                 16       0.555       8.879     0.06
COMM_BSC             492       0.000       0.045     0.00
POISON               127       0.005       0.617     0.00
fft                  254       0.002       0.485     0.00
setup_H               95       1.137     108.056     0.78
DHSCF                111       1.145     127.119     0.92
DHSCF3               111       1.026     113.854     0.82
rhoofd               111       0.812      90.130     0.65
XC                   111       0.074       8.255     0.06
GXC-CellXC           111       0.074       8.238     0.06
gridxc@cellXC        111       0.074       8.237     0.06
vmat                 111       0.131      14.594     0.11
IterSCF               79     174.691   13800.558    99.62
compute_dm            79     173.398   13698.477    98.89
diagon                79     173.396   13698.273    98.88
c-eigval           44240       0.077    3409.551    24.61
c-buildHS          44240       0.027    1179.749     8.52
cdiag              88480       0.061    5402.737    39.00
cdiag1             88480       0.003     265.558     1.92
cdiag2             88480       0.007     608.236     4.39
cdiag3             88480       0.051    4469.089    32.26
c-eigvec           44240       0.099    4370.480    31.55
cdiag4             44240       0.001      30.156     0.22
c-buildD           44240       0.134    5912.146    42.68
MIXER                 63       0.001       0.047     0.00
PostSCF               16       1.346      21.532     0.16
FINAL_HF              16       1.346      21.532     0.16
DHSCF4                16       0.829      13.265     0.10
dfscf                 16       0.743      11.894     0.09
overfsm               16       0.017       0.266     0.00
writeHSX              16       0.001       0.019     0.00
state_analysis        16       0.000       0.001     0.00
siesta_move           16       0.000       0.007     0.00
Analysis               1       0.042       0.042     0.00
optical                1       0.000       0.000     0.00

>> End of run:  29-MAY-2025  17:46:09
Job completed
Job completed