 NOTE: Siesta V5 introduces some new defaults for basis-set generation
 NOTE: which might lead to slightly different numerical results.
 NOTE: Please see the manual for full details and compatibility measures.

reinit: Reading from file optimization.fdf

reinit: -----------------------------------------------------------------------
reinit: System Name:
reinit: -----------------------------------------------------------------------
reinit: System Label: AuRel
reinit: -----------------------------------------------------------------------

initatom: Reading input for the pseudopotentials and atomic orbitals ----------
Species number:   1 Atomic number:   79 Label: Au

Ground state valence configuration (from tables):   6s01  6p00  5d10  5f00

---- Processing specs for species: Au
Reading pseudopotential information in PSML from:
  Au.psml
PSML file version: 1.1
GGA--PBE XC_GGA_X_PBE--XC_GGA_C_PBE pb
PSML uuid: fa497b30-be45-11e7-41fb-494093d7a025
Semicore shell(s) with  8 electrons included in the valence for Au

---- Pseudopotential check for Au

Pseudized shells:
5s( 2.00) rc: 1.46
5p( 6.00) rc: 1.56
5d(10.00) rc: 1.56
5f( 0.00) rc: 1.60
Valence configuration for ps generation: 5s:5p:5d:6s: Total charge:  19.000000
Semicore shell(s): 5s 5p
Fallback to non-perturbative polarization scheme for Au
Please see the manual if this is not desired in principle
For Au, standard SIESTA heuristics set lmxkb to 3
 (one more than the basis l, including polarization orbitals).
Use PS.lmax or PS.KBprojectors blocks to override.

<basis_specs>
Au                   Z=  79    Mass=  196.97        Charge= 0.17977+309
Lmxo=2 Lmxkb= 3    BasisType=split      Semic=T
L=0  Nsemic=1  Cnfigmx=6
          i=1  nzeta=1  polorb=0  (5s)  (semicore shell)
            splnorm:   0.15000
               vcte:    40.000
               rinn:  -0.90000
               qcoe:    0.0000
               qyuk:    0.0000
               qwid:   0.10000E-01
                rcs:    0.0000
            lambdas:    1.0000
          i=2  nzeta=2  polorb=0  (6s)  (to be polarized non-perturbatively)
            splnorm:   0.15000
               vcte:    40.000
               rinn:  -0.90000
               qcoe:    0.0000
               qyuk:    0.0000
               qwid:   0.10000E-01
                rcs:    0.0000      0.0000
            lambdas:    1.0000      1.0000
L=1  Nsemic=1  Cnfigmx=6
          i=1  nzeta=1  polorb=0  (5p)  (semicore shell)
            splnorm:   0.15000
               vcte:    40.000
               rinn:  -0.90000
               qcoe:    0.0000
               qyuk:    0.0000
               qwid:   0.10000E-01
                rcs:    0.0000
            lambdas:    1.0000
          i=2  nzeta=1  polorb=0  (6p)  (non-perturbative polarization shell)
            splnorm:   0.15000
               vcte:    40.000
               rinn:  -0.90000
               qcoe:    0.0000
               qyuk:   0.49407-323
               qwid:   0.44466-322
                rcs:    0.0000
            lambdas:    1.0000
L=2  Nsemic=0  Cnfigmx=5
          i=1  nzeta=2  polorb=0  (5d)
            splnorm:   0.15000
               vcte:    40.000
               rinn:  -0.90000
               qcoe:    0.0000
               qyuk:    0.0000
               qwid:   0.10000E-01
                rcs:    0.0000      0.0000
            lambdas:    1.0000      1.0000
L=0  Nkbl=2  erefs: 0.17977+309 0.17977+309
L=1  Nkbl=2  erefs: 0.17977+309 0.17977+309
L=2  Nkbl=1  erefs: 0.17977+309
L=3  Nkbl=1  erefs: 0.17977+309
</basis_specs>

Using PAO.SplitTailNorm
atom: Called for Au                    (Z =  79)
Maximum radius (at nrval) set to   50.00000 8518

read_vps: Pseudopotential generation method:
read_vps: ONCVPSP-3.Hamann's oncvpsp
Valence charge in pseudo generation:   19.00000

read_vps: Pseudopotential includes a core correction:
read_vps: Pseudo-core for xc-correction

xc_check: Exchange-correlation functional:
xc_check: GGA Perdew, Burke & Ernzerhof 1996
Got Vlocal (oncv-fit) from psml data
Choosing vlocal chloc cutoff:  5.037181
qtot up to nchloc:   18.99999407
atom: Maximum radius for chlocal:    5.03718
atom: Maximum radius for r*vlocal+2*Zval:    5.03718
Reading KB projs from Au psml data
Using scalar-relativistic projectors in PSML file

PSML: Kleinman-Bylander projectors:
   l= 0   rc=  1.474132   Ekb= 18.815768
   l= 0   rc=  1.474132   Ekb= -0.390506
   l= 1   rc=  1.583336   Ekb=  4.781134
   l= 1   rc=  1.583336   Ekb= -3.699696
   l= 2   rc=  1.583336   Ekb=  2.968821
   l= 2   rc=  1.583336   Ekb=  0.574456
   l= 3   rc=  1.622038   Ekb=  2.312314

PSML: Total number of  Kleinman-Bylander projectors:  25
atom: -------------------------------------------------------------------------

atom: SANKEY-TYPE ORBITALS:
atom: Selected multiple-zeta basis: split

SPLIT: Orbitals with angular momentum L= 0

SPLIT: Basis orbitals for state 5s

SPLIT: PAO cut-off radius determined from an
SPLIT: energy shift=  0.000735 Ry
Split based on tail norm

   izeta = 1
                 lambda =    1.000000
                     rc =    2.925359
                 energy =   -7.964134
                kinetic =    2.893592
    potential(screened) =  -10.857725
       potential(ionic) =  -37.457701

SPLIT: Basis orbitals for state 6s

[...]

   izeta = 2
                 rmatch =    4.927355
              splitnorm =    0.150000
                 energy =   -0.413505
                kinetic =    2.478661
    potential(screened) =   -2.892166
       potential(ionic) =  -20.911581

[...]

SPLIT: Basis orbitals for state 5p

[...]

SPLIT: Basis orbitals for state 6p
SPLIT: Non-perturbative polarization orbs for state 6s
SPLIT: rc(1st zeta) (re)set to: 8.0332 (expansion factor: 1.0000)
Split based on tail norm

[...]

SPLIT: Orbitals with angular momentum L= 2

SPLIT: Basis orbitals for state 5d

SPLIT: PAO cut-off radius determined from an
SPLIT: energy shift=  0.000735 Ry
Split based on tail norm

   izeta = 1
                 lambda =    1.000000
                     rc =    6.393405
                 energy =   -0.504592
                kinetic =    4.935315
    potential(screened) =   -5.439906
       potential(ionic) =  -26.571989

   izeta = 2
                 rmatch =    3.462344
              splitnorm =    0.150000
                 energy =   -0.397189
                kinetic =    6.101362
    potential(screened) =   -6.498551
       potential(ionic) =  -29.253309
atom: Total number of Sankey-type orbitals: 19

atm_pop: Valence configuration (for local Pseudopot. screening):
 5s( 2.00) 6s( 1.00)
 5p( 6.00) 6p( 0.00)
 5d(10.00)
Vna: chval, zval:   19.00000  19.00000

Vna:  Cut-off radius for the neutral-atom potential:   8.033223
comcore: Pseudo-core radius Rcore=  2.583037

atom: _________________________________________________________________________

prinput: Basis input

PAO.BasisType split

%block ChemicalSpeciesLabel
    1   79 Au                      # Species index, atomic number, species label
%endblock ChemicalSpeciesLabel

%block PAO.Basis                 # Define Basis set
# WARNING: This information might be incomplete!
Au                    5                    # Species label, number of l-shells
 n=5   0   1                         # n, l, Nzeta
   2.925
   1.000
 n=6   0   2                         # n, l, Nzeta
   8.033      4.927
   1.000      1.000
 n=5   1   1                         # n, l, Nzeta
   3.518
   1.000
 n=6   1   1                         # n, l, Nzeta
   8.033
   1.000
 n=5   2   2                         # n, l, Nzeta
   6.393      3.462
   1.000      1.000
%endblock PAO.Basis

prinput: ----------------------------------------------------------------------

Dumping basis to NetCDF file Au.ion.nc
coor:   Atomic-coordinates input format  =     Cartesian coordinates
coor:                                          (in Angstroms)

siesta: Atomic coordinates (Bohr) and species
siesta:      0.46382   0.26205   0.26205  1        1
siesta:      0.55115   4.22624   4.22624  1        2
siesta:      4.07415   0.22947   4.14540  1        3
siesta:      4.07415   4.14540   0.22946  1        4
siesta:      6.14288   6.97963   6.97963  1        5
siesta:      7.44455   0.18889   0.18889  1        6
siesta:      0.37813   7.54295   0.40729  1        7
siesta:      0.37814   0.40729   7.54295  1        8
siesta:      8.02583   3.81745   3.81745  1        9
siesta:      0.00000   3.94129   9.93416  1       10

siesta: System type = molecule

initatomlists: Number of atoms, orbitals, and projectors:     10   190   250

coxmol: Writing XMOL coordinates into file AuRel.xyz

siesta: ******************** Simulation parameters ****************************
siesta:
siesta: The following are some of the parameters of the simulation.
siesta: A complete list of the parameters used, including default values,
siesta: can be found in file out.fdf
siesta:
redata: Spin configuration                          = none
redata: Number of spin components                   = 1
redata: Time-Reversal Symmetry                      = T
redata: Spin spiral                                 = F
redata: Long output                                 =   F
redata: Number of Atomic Species                    =        1
redata: Charge density info will appear in .RHO file
redata: Write Mulliken charges (when)               = none
redata: Write Mulliken Pop.                         = NO
redata: Write Hirshfeld charges (when)              = none
redata: Write Voronoi charges (when)                = none
redata: Write spin charge (when)                    = none
redata: Matel table size (NRTAB)                    =     1024
redata: Mesh Cutoff                                 =   300.0000 Ry
redata: Net charge of the system                    =     0.0000 |e|
redata: Min. number of SCF Iter                     =        0
redata: Max. number of SCF Iter                     =     1000
redata: SCF convergence failure will abort job
redata: SCF mix quantity                            = Hamiltonian
redata: Mix DM or H after convergence               =   F
redata: Recompute H after scf cycle                 =   F
redata: Mix DM in first SCF step                    =   T
redata: Write Pulay info on disk                    =   F
redata: New DM Occupancy tolerance                  = 0.000000000001
redata: No kicks to SCF
redata: DM Mixing Weight for Kicks                  =     0.5000
redata: Require Harris convergence for SCF          =   F
redata: Harris energy tolerance for SCF             =     0.000100 eV
redata: Require DM convergence for SCF              =   T
redata: DM tolerance for SCF                        =     0.000100
redata: Require EDM convergence for SCF             =   F
redata: EDM tolerance for SCF                       =     0.001000 eV
redata: Require H convergence for SCF               =   T
redata: Hamiltonian tolerance for SCF               =     0.001000 eV
redata: Require (free) Energy convergence for SCF   =   F
redata: (free) Energy tolerance for SCF             =     0.000100 eV
redata: Using DFT-D3 dispersion                     =   F
redata: Using Saved Data (generic)                  =   F
redata: Use continuation files for DM               =   T
[...]
mix.SCF:    History steps                        = 2
mix.SCF:    Linear mixing weight                 =     0.250000
mix.SCF:    Mixing weight                        =     0.250000
mix.SCF:    SVD condition                        = 0.1000E-07
redata: Save all siesta data in one NC              =   F
redata: ***********************************************************************

%block SCF.Mixers
  Pulay
%endblock SCF.Mixers

%block SCF.Mixer.Pulay
  # Mixing method
  method pulay
  variant stable

  # Mixing options
  weight 0.2500
  weight.linear 0.2500
  history 2
%endblock SCF.Mixer.Pulay

DM_history_depth set to one: no extrapolation allowed by default for geometry relaxation
Size of DM history Fstack: 1
Total number of electrons:   190.000000
Total ionic charge:   190.000000

siesta: k-grid: Number of k-points = 1
siesta: k-point is Gamma-only

diag: Algorithm                                     = D&C
diag: Used triangular part                          = Lower
diag: Absolute tolerance                            =  0.100E-15
diag: Orthogonalization factor                      =  0.100E-05

ts: **************************************************************
ts: Save H and S matrices                           =    F
ts: Save DM and EDM matrices                        =    F
ts: Only save the overlap matrix S                  =    F
ts: **************************************************************

************************ Begin: TS CHECKS AND WARNINGS ************************
************************ End: TS CHECKS AND WARNINGS **************************

                        Begin CG opt. move =      0

outcell: Unit cell vectors (Ang):
       20.000000    0.000000    0.000000
        0.000000   20.000000    0.000000
        0.000000    0.000000   20.000000

outcell: Cell vector modules (Ang)   :   20.000000   20.000000   20.000000
outcell: Cell angles (23,13,12) (deg):     90.0000     90.0000     90.0000
outcell: Cell volume (Ang**3)        :   8000.0000
<dSpData1D:S at geom step 0
  <sparsity:sparsity for geom step 0
    nrows_g=190 nrows=190 sparsity=.8423 nnzs=30408, refcount: 7>
  <dData1D:(new from dSpData1D) n=30408, refcount: 1>
refcount: 1>
new_DM -- step:     1
Initializing Density Matrix...

Attempting to read DM from file... Failed...
DM filled with atomic data:
<dSpData2D:DM initialized from atoms
  <sparsity:sparsity for geom step 0
    nrows_g=190 nrows=190 sparsity=.8423 nnzs=30408, refcount: 8>
  <dData2D:DM n=30408 m=1, refcount: 1>
refcount: 1>
No. of atoms with KB's overlaping orbs in proc 0. Max # of overlaps:      10     117

InitMesh: MESH = 216 x 216 x 216 = 10077696
InitMesh: Mesh cutoff (required, used) =   300.000   322.366 Ry
New grid distribution [1]: sub = 2

stepf: Fermi-Dirac step function

siesta: Program's energy decomposition (eV):
siesta: Ebs     =     -7576.920888
siesta: Eions   =     50778.123407
siesta: Ena     =      5113.582426
siesta: Ekin    =     11229.529924
siesta: Enl     =       676.016469
siesta: Eso     =         0.000000
siesta: Edftu   =         0.000000
siesta: DEna    =       436.900524
siesta: DUscf   =        22.652253
siesta: DUext   =         0.000000
siesta: Ex      =     -6596.695071
siesta: Ec      =      -400.431350
siesta: Exc     =     -6997.126421
siesta: EbV     =         0.000000
siesta: eta*DQ  =         0.000000
siesta: Emadel  =         0.000000
siesta: Emeta   =         0.000000
siesta: Emolmec =         0.000000
siesta: Ekinion =         0.000000
siesta: Eharris =    -40258.396171
siesta: Etot    =    -40296.568233
siesta: FreeEng =    -40296.568490

SCF Convergence by DM+H criterion
max |DM_out - DM_in|         :     0.0000849911
max |H_out - H_in|      (eV) :     0.0007465873
SCF cycle converged after 19 iterations

Using DM_out to compute the final energy and forces
No. of atoms with KB's overlaping orbs in proc 0. Max # of overlaps:      10     117

siesta: E_KS(eV) =           -40308.7838

siesta: E_KS - E_eggbox =    -40308.7838

siesta: Atomic forces (eV/Ang):
   Tot   -0.001716   -0.000619   -0.000283
   Max    6.062882
   Res    1.864826    sqrt( Sum f_i^2 / 3N )
   Max    6.062882    constrained

Stress tensor Voigt[x,y,z,yz,xz,xy] (kbar):       -0.12       -2.29       -0.86       -1.40        0.66        0.45
(Free)E + p*V (eV/cell)   -40303.3483
Target enthalpy (eV/cell)   -40308.7838

[...]

outcell: Cell vector modules (Ang)   :   20.000000   20.000000   20.000000
outcell: Cell angles (23,13,12) (deg):     90.0000     90.0000     90.0000
outcell: Cell volume (Ang**3)        :   8000.0000
<dSpData1D:S at geom step 1
  <sparsity:sparsity for geom step 1
    nrows_g=190 nrows=190 sparsity=.8360 nnzs=30180, refcount: 7>
  <dData1D:(new from dSpData1D) n=30180, refcount: 1>
refcount: 1>
new_DM -- step:     2
Re-using DM from previous geometries...
Number of DMs in history: 1
 DM extrapolation coefficients:
1   1.00000
New DM after history re-use:
<dSpData2D:SpM extrapolated using coords
  <sparsity:sparsity for geom step 1
    nrows_g=190 nrows=190 sparsity=.8360 nnzs=30180, refcount: 9>
  <dData2D:(temp array for extrapolation) n=30180 m=1, refcount: 1>
refcount: 1>
No. of atoms with KB's overlaping orbs in proc 0. Max # of overlaps:      10     112

[...]

        iscf     Eharris(eV)        E_KS(eV)     FreeEng(eV)     dDmax    Ef(eV) dHmax(eV)
   scf:    1   -40309.230980   -40309.466375   -40309.466382  0.314133 -4.747216  0.459532
   scf:    2   -40308.312020   -40309.123187   -40309.123197  0.435095 -4.805606  2.506110
   scf:    3   -40309.558471   -40309.496253   -40309.496260  0.367460 -4.765761  0.091691
   scf:    4   -40309.497275   -40309.496852   -40309.496859  0.009602 -4.767096  0.066459
   scf:    5   -40309.497098   -40309.496992   -40309.496999  0.003288 -4.767317  0.021124
   scf:    6   -40309.497051   -40309.497026   -40309.497033  0.002469 -4.766905  0.018141
   scf:    7   -40309.497041   -40309.497034   -40309.497041  0.000526 -4.766711  0.009103
   scf:    8   -40309.497045   -40309.497040   -40309.497047  0.000623 -4.766414  0.007020
   scf:    9   -40309.497045   -40309.497043   -40309.497050  0.000463 -4.766144  0.002582
   scf:   10   -40309.497043   -40309.497043   -40309.497050  0.000291 -4.766060  0.002350
   scf:   11   -40309.497044   -40309.497043   -40309.497050  0.000091 -4.766013  0.001518
   scf:   12   -40309.497044   -40309.497043   -40309.497050  0.000059 -4.765950  0.001024
   scf:   13   -40309.497044   -40309.497044   -40309.497050  0.000073 -4.765894  0.000425

[...]

cgvc: Finished line minimization    1.  Mean atomic displacement =    0.1442

[...]

                        Begin CG opt. move =     15

outcell: Unit cell vectors (Ang):
       20.000000    0.000000    0.000000
        0.000000   20.000000    0.000000
        0.000000    0.000000   20.000000

outcell: Cell vector modules (Ang)   :   20.000000   20.000000   20.000000
outcell: Cell angles (23,13,12) (deg):     90.0000     90.0000     90.0000
outcell: Cell volume (Ang**3)        :   8000.0000
<dSpData1D:S at geom step 15
  <sparsity:sparsity for geom step 15
    nrows_g=190 nrows=190 sparsity=.8736 nnzs=31538, refcount: 7>
  <dData1D:(new from dSpData1D) n=31538, refcount: 1>
refcount: 1>
new_DM -- step:    16
Re-using DM from previous geometries...
Number of DMs in history: 1
 DM extrapolation coefficients:
1   1.00000
New DM after history re-use:
<dSpData2D:SpM extrapolated using coords
  <sparsity:sparsity for geom step 15
    nrows_g=190 nrows=190 sparsity=.8736 nnzs=31538, refcount: 9>
  <dData2D:(temp array for extrapolation) n=31538 m=1, refcount: 1>
refcount: 1>
No. of atoms with KB's overlaping orbs in proc 0. Max # of overlaps:      10     121

InitMesh: MESH = 216 x 216 x 216 = 10077696
InitMesh: Mesh cutoff (required, used) =   300.000   322.366 Ry
New grid distribution [1]: sub = 2

        iscf     Eharris(eV)        E_KS(eV)     FreeEng(eV)     dDmax    Ef(eV) dHmax(eV)
   scf:    1   -40310.304820   -40310.603625   -40310.603625  0.258358 -4.597449  0.885911
   scf:    2   -40309.439178   -40310.274178   -40310.274178  0.164994 -4.702672  2.805116
   scf:    3   -40310.741356   -40310.650750   -40310.650750  0.123395 -4.626090  0.030851
   scf:    4   -40310.651367   -40310.651088   -40310.651088  0.003327 -4.625680  0.023293
   scf:    5   -40310.651322   -40310.651215   -40310.651215  0.002039 -4.624830  0.009901
   scf:    6   -40310.651278   -40310.651250   -40310.651250  0.001400 -4.623900  0.003079
   scf:    7   -40310.651257   -40310.651254   -40310.651254  0.000454 -4.623424  0.001315
   scf:    8   -40310.651255   -40310.651254   -40310.651254  0.000075 -4.623243  0.000775

SCF Convergence by DM+H criterion
max |DM_out - DM_in|         :     0.0000751429
max |H_out - H_in|      (eV) :     0.0007745425
SCF cycle converged after 8 iterations

Using DM_out to compute the final energy and forces
No. of atoms with KB's overlaping orbs in proc 0. Max # of overlaps:      10     121

siesta: E_KS(eV) =           -40310.6513

siesta: Atomic forces (eV/Ang):
   Tot    0.000265    0.001365    0.001471
   Max    0.600935
   Res    0.209300    sqrt( Sum f_i^2 / 3N )
   Max    0.600935    constrained

Stress tensor Voigt[x,y,z,yz,xz,xy] (kbar):       -0.06        0.20       -0.46        0.08       -0.21        0.09
(Free)E + p*V (eV/cell)   -40310.1028
Target enthalpy (eV/cell)   -40310.6513

cgvc: Finished line minimization    5.  Mean atomic displacement =    0.1245

outcoor: Final (unrelaxed) atomic coordinates (Ang):
    0.06171710    0.34331647    0.77835878   1       1  Au
    0.55196120    2.42391110    2.48542106   1       2  Au
    2.36498195   -0.12163106    2.18001376   1       3  Au
    2.26626109    2.14827642    0.13285191   1       4  Au
    2.82073893    3.41672543    3.59035215   1       5  Au
    4.20927079    0.30766096   -0.22098089   1       6  Au
    0.19135149    3.84697225    0.35086022   1       7  Au
    0.09375517    0.00596781    3.68383878   1       8  Au
    4.24550118    1.92664302    1.96259797   1       9  Au
   -0.11994861    2.49913445    5.02424415   1      10  Au

coxmol: Writing XMOL coordinates into file AuRel.xyz

siesta: Program's energy decomposition (eV):
siesta: Ebs     =     -6695.259258
siesta: Eions   =     50778.123407
siesta: Ena     =      5115.087741
siesta: Ekin    =     11581.612206
siesta: Enl     =       683.736818
siesta: Eso     =         0.000000
siesta: Edftu   =         0.000000
siesta: DEna    =       158.615024
siesta: DUscf   =         3.706779
siesta: DUext   =         0.000000
siesta: Ex      =     -6672.346650
siesta: Ec      =      -402.939766
siesta: Exc     =     -7075.286416
siesta: EbV     =         0.000000
siesta: eta*DQ  =         0.000000
siesta: Emadel  =         0.000000
siesta: Emeta   =         0.000000
siesta: Emolmec =         0.000000
siesta: Ekinion =         0.000000
siesta: Eharris =    -40310.651255
siesta: Etot    =    -40310.651254
siesta: FreeEng =    -40310.651254

siesta: Final energy (eV):
siesta:  Band Struct. =   -6695.259258
siesta:       Kinetic =   11581.612206
siesta:       Hartree =   61247.920650
siesta:         Edftu =       0.000000
siesta:       Eso     =       0.000000
siesta:    Ext. field =       0.000000
siesta:         Exch. =   -6672.346650
siesta:         Corr. =    -402.939766
siesta:     Bulk bias =       0.000000
siesta:   Exch.-corr. =   -7075.286416
siesta:  Ion-electron = -135705.321103
siesta:       Ion-ion =   29640.423408
siesta:       Ekinion =       0.000000
siesta: D3 dispersion =       0.000000
siesta:         Total =  -40310.651254
siesta:         Fermi =      -4.623243

siesta: Atomic forces (eV/Ang):
siesta:      1   -0.040753   -0.049016   -0.009128
siesta:      2    0.151703   -0.083820    0.195679
siesta:      3    0.193317    0.153948   -0.186028
siesta:      4   -0.519653   -0.040295   -0.116464
siesta:      5   -0.021078   -0.140752    0.183861
siesta:      6   -0.009238   -0.062292   -0.038361
siesta:      7    0.010769    0.142400   -0.600935
siesta:      8    0.027887    0.375598    0.069894
siesta:      9    0.243028   -0.023216    0.329461
siesta:     10   -0.035717   -0.271191    0.173493
siesta: ----------------------------------------
siesta:    Tot    0.000265    0.001365    0.001471

siesta: Stress tensor (static) (eV/Ang**3):
siesta:    -0.000040    0.000055   -0.000128
siesta:     0.000055    0.000123    0.000048
siesta:    -0.000128    0.000048   -0.000288

siesta: Cell volume =       8000.000000 Ang**3

siesta: Pressure (static):
siesta:                Solid            Molecule  Units
siesta:           0.00000075          0.00000002  Ry/Bohr**3
siesta:           0.00006856          0.00000225  eV/Ang**3
siesta:           0.10983930          0.00360120  kBar
(Free)E+ p_basis*V_orbitals  =      -40298.812729
(Free)Eharris+ p_basis*V_orbitals  =      -40298.812730

siesta: Electric dipole (a.u.)  =   -0.344332   -0.223572   -0.410478
siesta: Electric dipole (Debye) =   -0.875204   -0.568264   -1.043330

cite: Please indicate the Siesta version in published work: 5.2.2
cite: This calculation has made use of features in the following articles
cite: which we encourage you to cite in published work.
cite: (Please see "AuRel.bib" for a BibTeX file.)
        Primary SIESTA paper
          DOI: www.doi.org/10.1088/0953-8984/14/11/302
        PSML pseudopotential format
          DOI: www.doi.org/10.1016/j.cpc.2018.02.011

Routine            Calls   Time/call    Tot.time        %
siesta                 1    1263.238    1263.238   100.00
Setup                  1       0.161       0.161     0.01
bands                  1       0.000       0.000     0.00
KSV_init               1       0.000       0.000     0.00
IterGeom              16      78.941    1263.063    99.99
geom_init             16      12.024     192.384    15.23
state_init            16       0.045       0.722     0.06
hsparse               16       0.002       0.035     0.00
overlap               16       0.040       0.637     0.05
Setup_H0              16       6.119      97.907     7.75
naefs                 32       0.000       0.003     0.00
dnaefs                32       0.000       0.002     0.00
MolMec                32       0.000       0.000     0.00
kinefsm               32       0.029       0.920     0.07
nlefsm                32       0.092       2.958     0.23
DHSCF_Init            16       5.955      95.274     7.54
DHSCF1                16       0.161       2.568     0.20
InitMesh              16       0.160       2.567     0.20
INITMESH              16       0.000       0.000     0.00
DHSCF2                16       5.794      92.706     7.34
REMESH                16       0.379       6.058     0.48
REORD                616       0.027      16.587     1.31
PHION                 16       3.370      53.913     4.27
COMM_BSC             800       0.024      18.857     1.49
POISON               204       1.382     281.940    22.32
fft                  408       0.551     224.859    17.80
setup_H              172       5.730     985.561    78.02
DHSCF                188       6.147    1155.650    91.48
DHSCF3               188       5.715    1074.378    85.05
rhoofd               188       0.957     179.868    14.24
XC                   188       2.319     435.904    34.51
GXC-CellXC           188       2.207     414.850    32.84
gridxc@cellXC        188       2.207     414.846    32.84
vmat                 188       0.661     124.325     9.84
IterSCF              156       5.760     898.628    71.14
compute_dm           156       0.042       6.591     0.52
diagon               156       0.042       6.560     0.52
r-eigvec             156       0.023       3.511     0.28
r-buildHS            156       0.000       0.042     0.00
rdiag                156       0.022       3.469     0.27
rdiag1               156       0.001       0.123     0.01
rdiag2               156       0.002       0.355     0.03
rdiag3               156       0.014       2.126     0.17
rdiag4               156       0.005       0.842     0.07
r-buildD             156       0.019       3.008     0.24
MIXER                140       0.000       0.063     0.00
PostSCF               16      10.748     171.961    13.61
FINAL_HF              16      10.748     171.960    13.61
DHSCF4                16       5.079      81.272     6.43
dfscf                 16       4.259      68.142     5.39
overfsm               16       0.018       0.288     0.02
writeHSX              16       0.001       0.015     0.00
state_analysis        16       0.001       0.014     0.00
siesta_move           16       0.004       0.066     0.01
Analysis               1       0.005       0.005     0.00
optical                1       0.000       0.000     0.00

>> End of run:   1-JUL-2025  22:13:34
Job completed
Job completed