 NOTE: Siesta V5 introduces some new defaults for basis-set generation
 NOTE: which might lead to slightly different numerical results.
 NOTE: Please see the manual for full details and compatibility measures.

reinit: Reading from file relaxation.fdf

reinit: -----------------------------------------------------------------------
reinit: System Name:
reinit: -----------------------------------------------------------------------
reinit: System Label: SurRel
reinit: -----------------------------------------------------------------------

initatom: Reading input for the pseudopotentials and atomic orbitals ----------
Species number:   1 Atomic number:   22 Label: Ti
Species number:   2 Atomic number:    8 Label: O

Ground state valence configuration (from tables):   4s02  4p00  3d02  4f00
Ground state valence configuration (from tables):   2s02  2p04  3d00  4f00

---- Processing specs for species: Ti
Reading pseudopotential information in PSML from:
  Ti.psml
PSML file version: 1.1
GGA--PBE XC_GGA_X_PBE--XC_GGA_C_PBE pb
PSML uuid: caed23e0-be41-11e7-4603-0bd897f88bea
Semicore shell(s) with  8 electrons included in the valence for Ti

---- Processing specs for species: O
Reading pseudopotential information in PSML from:
  O.psml
PSML file version: 1.1
GGA--PBE XC_GGA_X_PBE--XC_GGA_C_PBE pb
PSML uuid: 3cff85a0-be41-11e7-6c5c-1b1fe64d18ef

---- Pseudopotential check for Ti

Pseudized shells:
3s( 2.00) rc: 1.36
3p( 6.00) rc: 1.31
3d( 2.00) rc: 1.66
Valence configuration for ps generation: 3s:3p:3d:4s: Total charge:  12.000000
Semicore shell(s): 3s 3p
Fallback to non-perturbative polarization scheme for Ti
Please see the manual if this is not desired in principle

---- Pseudopotential check for O

Pseudized shells:
2s( 2.00) rc: 1.36
2p( 4.00) rc: 1.46
3d( 0.00) rc: 1.26
Valence configuration for ps generation: 2s:2p: Total charge:   6.000000
For Ti, standard SIESTA heuristics set lmxkb to 3
 (one more than the basis l, including polarization orbitals).
Use PS.lmax or PS.KBprojectors blocks to override.
For O, standard SIESTA heuristics set lmxkb to 3
 (one more than the basis l, including polarization orbitals).
Use PS.lmax or PS.KBprojectors blocks to override.
Ti pseudopotential only contains V_ls up to l=2 -- lmxkb reset.
O pseudopotential only contains V_ls up to l=2 -- lmxkb reset.

<basis_specs>
Ti                   Z=  22    Mass=  47.867        Charge= 0.17977+309
Lmxo=2 Lmxkb= 2    BasisType=split      Semic=T
L=0  Nsemic=1  Cnfigmx=4
          i=1  nzeta=1  polorb=0  (3s)  (semicore shell)
            splnorm:   0.15000
               vcte:    40.000
               rinn:  -0.90000
               qcoe:    0.0000
               qyuk:    0.0000
               qwid:   0.10000E-01
                rcs:    0.0000
            lambdas:    1.0000
          i=2  nzeta=2  polorb=0  (4s)  (to be polarized non-perturbatively)
            splnorm:   0.15000
               vcte:    40.000
               rinn:  -0.90000
               qcoe:    0.0000
               qyuk:    0.0000
               qwid:   0.10000E-01
                rcs:    0.0000      0.0000
            lambdas:    1.0000      1.0000
L=1  Nsemic=1  Cnfigmx=4
          i=1  nzeta=1  polorb=0  (3p)  (semicore shell)
            splnorm:   0.15000
               vcte:    40.000
               rinn:  -0.90000
               qcoe:    0.0000
               qyuk:    0.0000
               qwid:   0.10000E-01
                rcs:    0.0000
            lambdas:    1.0000
          i=2  nzeta=1  polorb=0  (4p)  (non-perturbative polarization shell)
            splnorm:   0.15000
               vcte:    40.000
               rinn:  -0.90000
               qcoe:    0.0000
               qyuk:   0.49407-323
               qwid:   0.44466-322
                rcs:    0.0000
            lambdas:    1.0000
L=2  Nsemic=0  Cnfigmx=3
          i=1  nzeta=2  polorb=0  (3d)
            splnorm:   0.15000
               vcte:    40.000
               rinn:  -0.90000
               qcoe:    0.0000
               qyuk:    0.0000
               qwid:   0.10000E-01
                rcs:    0.0000      0.0000
            lambdas:    1.0000      1.0000
L=0  Nkbl=2  erefs: 0.17977+309 0.17977+309
L=1  Nkbl=2  erefs: 0.17977+309 0.17977+309
L=2  Nkbl=1  erefs: 0.17977+309
</basis_specs>

Using PAO.SplitTailNorm
atom: Called for Ti                    (Z =  22)
Maximum radius (at nrval) set to   50.00000 8518

read_vps: Pseudopotential generation method:
read_vps: ONCVPSP-3.Hamann's oncvpsp
Valence charge in pseudo generation:   12.00000

read_vps: Pseudopotential includes a core correction:
read_vps: Pseudo-core for xc-correction

xc_check: Exchange-correlation functional:
xc_check: GGA Perdew, Burke & Ernzerhof 1996
Got Vlocal (oncv-fit) from psml data
Choosing vlocal chloc cutoff:  3.029916
qtot up to nchloc:   12.00014688
atom: Maximum radius for chlocal:    3.02992
atom: Maximum radius for r*vlocal+2*Zval:    3.02992
Reading KB projs from Ti psml data
Using scalar-relativistic projectors in PSML file

PSML: Kleinman-Bylander projectors:
   l= 0   rc=  1.375180   Ekb= 22.724697
   l= 0   rc=  1.375180   Ekb=  2.527278
   l= 1   rc=  1.326200   Ekb=  3.950805
   l= 1   rc=  1.327537   Ekb= -0.169333
   l= 2   rc=  1.683555   Ekb=-10.372181
   l= 2   rc=  1.683555   Ekb= -2.954901

PSML: Total number of  Kleinman-Bylander projectors:  18
atom: -------------------------------------------------------------------------

atom: SANKEY-TYPE ORBITALS:
atom: Selected multiple-zeta basis: split

SPLIT: Orbitals with angular momentum L= 0

SPLIT: Basis orbitals for state 3s

SPLIT: PAO cut-off radius determined from an
SPLIT: energy shift=  0.022050 Ry
Split based on tail norm

   izeta = 1
                 lambda =    1.000000
                     rc =    2.635420
                 energy =   -4.579527
                kinetic =    2.326942
    potential(screened) =   -6.906469
       potential(ionic) =  -23.072621

[...]

   izeta = 2
                 rmatch =    5.301264
              splitnorm =    0.150000
                 energy =   -0.140155
                kinetic =    1.418596
    potential(screened) =   -1.558752
       potential(ionic) =  -10.896893

[...]

SPLIT: Basis orbitals for state 3p

[...]

SPLIT: Basis orbitals for state 4p
SPLIT: Non-perturbative polarization orbs for state 4s
SPLIT: rc(1st zeta) (re)set to: 6.8440 (expansion factor: 1.0000)
Split based on tail norm

[...]

SPLIT: Basis orbitals for state 3d

[...]

   izeta = 2
                 rmatch =    3.163483
              splitnorm =    0.150000
                 energy =   -0.141333
                kinetic =    8.704185
    potential(screened) =   -8.845518
       potential(ionic) =  -23.898466
atom: Total number of Sankey-type orbitals: 19

atm_pop: Valence configuration (for local Pseudopot. screening):
 3s( 2.00) 4s( 2.00)
 3p( 6.00) 4p( 0.00)
 3d( 2.00)
Vna: chval, zval:   12.00000  12.00000

Vna:  Cut-off radius for the neutral-atom potential:   6.843982
comcore: Pseudo-core radius Rcore=  1.766828

atom: _________________________________________________________________________

<basis_specs>
O                    Z=   8    Mass=  15.999        Charge= 0.17977+309
Lmxo=2 Lmxkb= 2    BasisType=split      Semic=F
L=0  Nsemic=0  Cnfigmx=2
          i=1  nzeta=2  polorb=0  (2s)
            splnorm:   0.15000
               vcte:    40.000
               rinn:  -0.90000
               qcoe:    0.0000
               qyuk:    0.0000
               qwid:   0.10000E-01
                rcs:    0.0000      0.0000
            lambdas:    1.0000      1.0000
L=1  Nsemic=0  Cnfigmx=2
          i=1  nzeta=2  polorb=1  (2p)  (to be polarized perturbatively)
            splnorm:   0.15000
               vcte:    40.000
               rinn:  -0.90000
               qcoe:    0.0000
               qyuk:    0.0000
               qwid:   0.10000E-01
                rcs:    0.0000      0.0000
            lambdas:    1.0000      1.0000
L=2  Nsemic=0  Cnfigmx=3
          i=1  nzeta=0  polorb=0  (3d)  (perturbative polarization orbital) (from 2p)
L=0  Nkbl=1  erefs: 0.17977+309
L=1  Nkbl=1  erefs: 0.17977+309
L=2  Nkbl=1  erefs: 0.17977+309
</basis_specs>

Using PAO.SplitTailNorm
atom: Called for O                     (Z =   8)
Maximum radius (at nrval) set to   50.00000 8518

read_vps: Pseudopotential generation method:
read_vps: ONCVPSP-3.Hamann's oncvpsp
Valence charge in pseudo generation:    6.00000

read_vps: Pseudopotential includes a core correction:
read_vps: Pseudo-core for xc-correction

xc_check: Exchange-correlation functional:
xc_check: GGA Perdew, Burke & Ernzerhof 1996
Got Vlocal (oncv-fit) from psml data
Choosing vlocal chloc cutoff:  6.020499
qtot up to nchloc:    6.00001015
atom: Maximum radius for chlocal:    6.02050
atom: Maximum radius for r*vlocal+2*Zval:    6.02050
Reading KB projs from O psml data
Using scalar-relativistic projectors in PSML file

PSML: Kleinman-Bylander projectors:
   l= 0   rc=  1.372412   Ekb= 12.113471
   l= 0   rc=  1.372412   Ekb=  1.648048
   l= 1   rc=  1.474132   Ekb= -9.434259
   l= 1   rc=  1.474132   Ekb= -2.298541
   l= 2   rc=  1.277664   Ekb= -2.663910

PSML: Total number of  Kleinman-Bylander projectors:  13
atom: -------------------------------------------------------------------------

atom: SANKEY-TYPE ORBITALS:
atom: Selected multiple-zeta basis: split

[...]

SPLIT: Basis orbitals for state 2s

[...]

SPLIT: Orbitals with angular momentum L= 1

SPLIT: Basis orbitals for state 2p

SPLIT: PAO cut-off radius determined from an
SPLIT: energy shift=  0.022050 Ry
Split based on tail norm

   izeta = 1
                 lambda =    1.000000
                     rc =    3.819866
                 energy =   -0.639970
                kinetic =    4.771237
    potential(screened) =   -5.411207
       potential(ionic) =  -13.142963

   izeta = 2
                 rmatch =    2.601252
              splitnorm =    0.150000
                 energy =   -0.382093
                kinetic =    6.846164
    potential(screened) =   -7.228258
       potential(ionic) =  -15.727266

POLgen: Perturbative polarization orbital with L=  2

POLgen: Polarization orbital for state 2p
Split based on tail norm

   izeta = 1
                     rc =    3.819866
                 energy =    2.500658
                kinetic =    4.605602
    potential(screened) =   -2.104944
       potential(ionic) =   -8.455031
atom: Total number of Sankey-type orbitals: 13

atm_pop: Valence configuration (for local Pseudopot. screening):
 2s( 2.00)
 2p( 4.00)
 3d( 0.00)
Vna: chval, zval:    6.00000   6.00000

Vna:  Cut-off radius for the neutral-atom potential:   3.819866
comcore: Pseudo-core radius Rcore=  1.354557

atom: _________________________________________________________________________

prinput: Basis input

PAO.BasisType split

%block ChemicalSpeciesLabel
    1   22 Ti                      # Species index, atomic number, species label
    2    8 O                       # Species index, atomic number, species label
%endblock ChemicalSpeciesLabel

%block PAO.Basis                 # Define Basis set
# WARNING: This information might be incomplete!
[...]
outcell: Cell volume (Ang**3)        :    397.4885
<dSpData1D:S at geom step 1
  <sparsity:sparsity for geom step 1
    nrows_g=540 nrows=540 sparsity=1.2605 nnzs=367548, refcount: 7>
  <dData1D:(new from dSpData1D) n=367548, refcount: 1>
refcount: 1>
new_DM -- step:     2
Re-using DM from previous geometries...
Number of DMs in history: 1
 DM extrapolation coefficients:
1   1.00000
New DM after history re-use:
<dSpData2D:SpM extrapolated using coords
  <sparsity:sparsity for geom step 1
    nrows_g=540 nrows=540 sparsity=1.2605 nnzs=367548, refcount: 9>
  <dData2D:(temp array for extrapolation) n=367548 m=1, refcount: 1>
refcount: 1>
Note: For starting DM, Qtot, Tr[D*S] =        288.00000000        288.45318988
No. of atoms with KB's overlaping orbs in proc 0. Max # of overlaps:     248     168

[...]

        iscf     Eharris(eV)        E_KS(eV)     FreeEng(eV)     dDmax    Ef(eV) dHmax(eV)
   scf:    1   -30199.153237   -30206.921031   -30206.921031  0.030531 -5.417872  0.325082
   scf:    2   -30206.259704   -30206.738079   -30206.738079  0.017928 -5.325598  0.752795
   scf:    3   -30206.993922   -30206.958793   -30206.958793  0.011151 -5.342006  0.082989
   scf:    4   -30206.962267   -30206.960690   -30206.960690  0.001989 -5.320433  0.034213
   scf:    5   -30206.961494   -30206.961155   -30206.961155  0.001214 -5.307717  0.019499
   scf:    6   -30206.961186   -30206.961174   -30206.961174  0.000148 -5.305618  0.012793
   scf:    7   -30206.961195   -30206.961185   -30206.961185  0.000104 -5.304540  0.004458
   scf:    8   -30206.961197   -30206.961191   -30206.961191  0.000093 -5.303454  0.002803
   scf:    9   -30206.961197   -30206.961194   -30206.961194  0.000099 -5.302391  0.001303
   scf:   10   -30206.961195   -30206.961195   -30206.961195  0.000014 -5.302244  0.000933

[...]

outcell: Cell vector modules (Ang)   :    3.763777    3.764503   28.727982
outcell: Cell angles (23,13,12) (deg):     90.0003     90.0003     90.0000
outcell: Cell volume (Ang**3)        :    407.0395
<dSpData1D:S at geom step 2
  <sparsity:sparsity for geom step 2
    nrows_g=540 nrows=540 sparsity=1.2496 nnzs=364380, refcount: 7>
  <dData1D:(new from dSpData1D) n=364380, refcount: 1>
refcount: 1>
new_DM -- step:     3
Re-using DM from previous geometries...
Number of DMs in history: 1
 DM extrapolation coefficients:
1   1.00000
New DM after history re-use:
<dSpData2D:SpM extrapolated using coords
  <sparsity:sparsity for geom step 2
    nrows_g=540 nrows=540 sparsity=1.2496 nnzs=364380, refcount: 9>
  <dData2D:(temp array for extrapolation) n=364380 m=1, refcount: 1>
refcount: 1>
No. of atoms with KB's overlaping orbs in proc 0. Max # of overlaps:     248     168

[...]

cgvc: Finished line minimization    1.  Mean atomic displacement =    0.0118

[...]

                        Begin CG opt. move =     15
 Kpoints in:            6 . Kpoints trimmed:            5

siesta: k-grid: Number of k-points = 5
siesta: k-points from Monkhorst-Pack grid
siesta: k-cutoff (effective) =     5.654 Ang
siesta: k-point supercell and displacements
siesta: k-grid:     3     0     0      0.000
siesta: k-grid:     0     3     0      0.000
siesta: k-grid:     0     0     1      0.000

superc: Internal auxiliary supercell:     5 x     5 x     3  =      75
superc: Number of atoms, orbitals, and projectors:   2700  40500  39600

[...]

outcell: Cell vector modules (Ang)   :    3.769747    3.769639   28.576723
outcell: Cell angles (23,13,12) (deg):     89.9947     89.9941     89.9999
outcell: Cell volume (Ang**3)        :    406.0919
<dSpData1D:S at geom step 15
  <sparsity:sparsity for geom step 15
    nrows_g=540 nrows=540 sparsity=1.2522 nnzs=365148, refcount: 7>
  <dData1D:(new from dSpData1D) n=365148, refcount: 1>
refcount: 1>
new_DM -- step:    16
Re-using DM from previous geometries...
Number of DMs in history: 1
 DM extrapolation coefficients:
1   1.00000
New DM after history re-use:
<dSpData2D:SpM extrapolated using coords
  <sparsity:sparsity for geom step 15
    nrows_g=540 nrows=540 sparsity=1.2522 nnzs=365148, refcount: 9>
  <dData2D:(temp array for extrapolation) n=365148 m=1, refcount: 1>
refcount: 1>
No. of atoms with KB's overlaping orbs in proc 0. Max # of overlaps:     248     168

InitMesh: MESH = 40 x 40 x 300 = 480000
InitMesh: Mesh cutoff (required, used) =   300.000   304.593 Ry
New grid distribution [1]: sub = 2

        iscf     Eharris(eV)        E_KS(eV)     FreeEng(eV)     dDmax    Ef(eV) dHmax(eV)
   scf:    1   -30207.148989   -30207.146284   -30207.146284  0.000062 -5.395587  0.002876
   scf:    2   -30207.146259   -30207.146276   -30207.146276  0.000130 -5.395894  0.014059
   scf:    3   -30207.146286   -30207.146284   -30207.146284  0.000109 -5.395658  0.000288
   scf:    4   -30207.146284   -30207.146284   -30207.146284  0.000004 -5.395684  0.000119

SCF Convergence by DM+H criterion
max |DM_out - DM_in|         :     0.0000038764
max |H_out - H_in|      (eV) :     0.0001192067
SCF cycle converged after 4 iterations

Using DM_out to compute the final energy and forces
No. of atoms with KB's overlaping orbs in proc 0. Max # of overlaps:     248     168

siesta: E_KS(eV) =           -30207.1463

siesta: Atomic forces (eV/Ang):
   Tot    0.009688    0.008183    0.084130
   Max    0.006981
   Res    0.002293    sqrt( Sum f_i^2 / 3N )
   Max    0.006981    constrained

Stress tensor Voigt[x,y,z,yz,xz,xy] (kbar):       -0.29       -0.32       -0.23       -0.01       -0.01        0.01
(Free)E + p*V (eV/cell)   -30207.0753
Target enthalpy (eV/cell)   -30207.1463

siesta: Stress tensor (static) (eV/Ang**3):
        -0.000184    0.000006   -0.000006
         0.000006   -0.000197   -0.000004
        -0.000006   -0.000004   -0.000144

siesta: Pressure (static):          0.28018583  kBar

siesta: Stress tensor (total) (eV/Ang**3):
        -0.000184    0.000006   -0.000006
         0.000006   -0.000197   -0.000004
        -0.000006   -0.000004   -0.000144

siesta: Pressure (total):          0.28018583  kBar

cgvc: Finished line minimization    7.  Mean atomic displacement =    0.0005

outcoor: Final (unrelaxed) atomic coordinates (Ang):
    1.88612150    1.88613434    4.76180104   1       1  Ti
    1.88636171    0.00089796    7.14343149   1       2  Ti
    0.00061140    0.00038514   -0.00106503   1       3  Ti
    0.00061381    1.88580709    2.38029308   1       4  Ti
    0.00088987    1.88582012    4.36242649   2       5  O
    1.88610081    1.88584179    6.74414306   2       6  O
    1.88592863    0.00114070    5.16132986   2       7  O
    0.00132404    0.00083390    7.54232410   2       8  O
    1.88609418    0.00084099    9.12534464   2       9  O
    0.00061123    0.00062473    1.98101571   2      10  O
    0.00055295    1.88552104    0.39822739   2      11  O
    1.88583737    1.88566440    2.77973526   2      12  O
    1.88660087    1.88659014   14.28740321   1      13  Ti
    1.88686302    0.00135858   16.66902817   1      14  Ti
    0.00110756    0.00081773    9.52457536   1      15  Ti
    0.00110627    1.88624965   11.90595230   1      16  Ti
    0.00139084    1.88627848   13.88804606   2      17  O
    1.88658527    1.88630224   16.26976822   2      18  O
    1.88642540    0.00159654   14.68690382   2      19  O
    0.00181767    0.00128786   17.06785518   2      20  O
    1.88658715    0.00131817   18.65094725   2      21  O
    0.00110471    0.00105145   11.50669272   2      22  O
    0.00105103    1.88594811    9.92367460   2      23  O
    1.88635187    1.88610183   12.30532526   2      24  O
    1.88709028    1.88706130   23.81294730   1      25  Ti
    1.88733426    0.00179908   26.19457365   1      26  Ti
    0.00159488    0.00129143   19.05012273   1      27  Ti
    0.00158703    1.88669240   21.43141787   1      28  Ti
    0.00187733    1.88672178   23.41355873   2      29  O
    1.88706362    1.88674491   25.79535395   2      30  O
    1.88693373    0.00201491   24.21243583   2      31  O
    0.00231319    0.00171681   26.59344042   2      32  O
    1.88707871    0.00175721   28.17644419   2      33  O
    0.00157824    0.00150834   21.03218521   2      34  O
    0.00152569    1.88640470   19.44936572   2      35  O
    1.88680822    1.88655694   21.83093849   2      36  O

outcell: Unit cell vectors (Ang):
        3.769747    0.000004    0.000192
        0.000004    3.769639    0.000174
        0.001467    0.001327   28.576723

outcell: Cell vector modules (Ang)   :    3.769747    3.769639   28.576723
outcell: Cell angles (23,13,12) (deg):     89.9947     89.9941     89.9999
outcell: Cell volume (Ang**3)        :    406.0919

coxmol: Writing XMOL coordinates into file SurRel.xyz

siesta: Program's energy decomposition (eV):
siesta: Ebs     =     -6704.994593
siesta: Eions   =     44643.213711
siesta: Ena     =      6158.025597
siesta: Ekin    =     14810.998910
siesta: Enl     =     -1448.955404
siesta: Eso     =         0.000000
siesta: Edftu   =         0.000000
siesta: DEna    =       473.091185
siesta: DUscf   =        23.641447
siesta: DUext   =         0.000000
siesta: Ex      =     -5215.846489
siesta: Ec      =      -364.887820
siesta: Exc     =     -5580.734309
siesta: EbV     =         0.000000
siesta: eta*DQ  =         0.000000
siesta: Emadel  =         0.000000
siesta: Emeta   =         0.000000
siesta: Emolmec =         0.000000
siesta: Ekinion =         0.000000
siesta: Eharris =    -30207.146284
siesta: Etot    =    -30207.146284
siesta: FreeEng =    -30207.146284

siesta: Final energy (eV):
siesta:  Band Struct. =   -6704.994593
siesta:       Kinetic =   14810.998910
siesta:       Hartree =    8197.432903
siesta:         Edftu =       0.000000
siesta:       Eso     =       0.000000
siesta:    Ext. field =       0.000000
siesta:         Exch. =   -5215.846489
siesta:         Corr. =    -364.887820
siesta:     Bulk bias =       0.000000
siesta:   Exch.-corr. =   -5580.734309
siesta:  Ion-electron =  -31675.044617
siesta:       Ion-ion =  -15959.799172
siesta:       Ekinion =       0.000000
siesta: D3 dispersion =       0.000000
siesta:         Total =  -30207.146284
siesta:         Fermi =      -5.395684

siesta: Atomic forces (eV/Ang):
siesta:      1   -0.000895   -0.000713    0.006381
siesta:      2   -0.000675    0.000448   -0.001518
siesta:      3    0.000452    0.000414   -0.000764
siesta:      4    0.000717   -0.001271    0.005196
siesta:      5    0.001309    0.000292    0.003062
siesta:      6    0.000044   -0.000172    0.001004
siesta:      7   -0.000658    0.000753   -0.001332
siesta:      8    0.001926    0.000684    0.005328
siesta:      9   -0.000701    0.001227    0.006259
siesta:     10    0.001300    0.001910    0.002907
siesta:     11    0.000743   -0.000561    0.001676
siesta:     12   -0.000367   -0.000565    0.000813
siesta:     13   -0.000864   -0.000705    0.006143
siesta:     14   -0.000650    0.000451   -0.001920
siesta:     15    0.000431    0.000462   -0.002887
siesta:     16    0.000772   -0.001325    0.002384
siesta:     17    0.001372    0.000283    0.003028
siesta:     18    0.000059   -0.000153    0.000621
siesta:     19   -0.000615    0.000841   -0.000934
siesta:     20    0.001945    0.000677    0.005663
siesta:     21   -0.000757    0.001170    0.005586
siesta:     22    0.001356    0.001992    0.002554
siesta:     23    0.000730   -0.000637    0.004796
siesta:     24   -0.000534   -0.000613    0.001555
siesta:     25   -0.000895   -0.000845    0.006981
siesta:     26   -0.000585    0.000466   -0.001627
siesta:     27    0.000441    0.000428   -0.001230
siesta:     28    0.000706   -0.001250    0.006560
siesta:     29    0.001188    0.000173    0.003089
siesta:     30    0.000081   -0.000377   -0.000045
siesta:     31   -0.000533    0.001881   -0.000695
siesta:     32    0.001811    0.000702    0.004954
siesta:     33   -0.000756    0.001199    0.006342
siesta:     34    0.001317    0.001963    0.002548
siesta:     35    0.000756   -0.000464    0.001828
siesta:     36   -0.000286   -0.000583   -0.000172
siesta: ----------------------------------------
siesta:    Tot    0.009688    0.008183    0.084130

siesta: Stress tensor (static) (eV/Ang**3):
siesta:    -0.000184    0.000006   -0.000006
siesta:     0.000006   -0.000197   -0.000004
siesta:    -0.000006   -0.000004   -0.000144

siesta: Constrained stress tensor (static) (eV/Ang**3):
siesta:    -0.000184    0.000006   -0.000006
siesta:     0.000006   -0.000197   -0.000004
siesta:    -0.000006   -0.000004   -0.000144

siesta: Cell volume =        406.091886 Ang**3

siesta: Pressure (static):
siesta:                Solid            Molecule  Units
siesta:           0.00000190          0.00000179  Ry/Bohr**3
siesta:           0.00017488          0.00016447  eV/Ang**3
siesta:           0.28018583          0.26351501  kBar
(Free)E+ p_basis*V_orbitals  =      -30195.003252
(Free)Eharris+ p_basis*V_orbitals  =      -30195.003252

cite: Please indicate the Siesta version in published work: 5.2.2
cite: This calculation has made use of features in the following articles
cite: which we encourage you to cite in published work.
cite: (Please see "SurRel.bib" for a BibTeX file.)
        Primary SIESTA paper
          DOI: www.doi.org/10.1088/0953-8984/14/11/302
        PSML pseudopotential format
          DOI: www.doi.org/10.1016/j.cpc.2018.02.011

Routine            Calls   Time/call    Tot.time        %
siesta                 1     949.798     949.798   100.00
Setup                  1       0.259       0.259     0.03
bands                  1       0.000       0.000     0.00
KSV_init               1       0.000       0.000     0.00
IterGeom              16      59.345     949.528    99.97
geom_init             16       8.180     130.879    13.78
state_init            16       0.491       7.854     0.83
hsparse               16       0.189       3.019     0.32
overlap               16       0.200       3.201     0.34
Setup_H0              16       5.285      84.566     8.90
naefs                 32       0.001       0.040     0.00
dnaefs                32       0.001       0.029     0.00
MolMec                32       0.000       0.000     0.00
kinefsm               32       0.152       4.863     0.51
nlefsm                32       0.592      18.954     2.00
DHSCF_Init            16       4.405      70.476     7.42
DHSCF1                16       0.047       0.749     0.08
InitMesh              16       0.047       0.748     0.08
INITMESH              16       0.000       0.000     0.00
DHSCF2                16       4.358      69.724     7.34
REMESH                16       0.801      12.822     1.35
REORD                496       0.001       0.500     0.05
PHION                 16       3.047      48.753     5.13
COMM_BSC             560       0.001       0.528     0.06
POISON               144       0.035       5.020     0.53
fft                  288       0.013       3.791     0.40
setup_H              112       2.546     285.196    30.03
DHSCF                128       3.214     411.387    43.31
DHSCF3               128       2.543     325.516    34.27
rhoofd               128       1.141     146.107    15.38
XC                   128       0.544      69.675     7.34
GXC-CellXC           128       0.542      69.318     7.30
gridxc@cellXC        128       0.542      69.316     7.30
vmat                 128       0.810     103.677    10.92
IterSCF               96       7.089     680.549    71.65
compute_dm            96       4.508     432.756    45.56
diagon                96       4.505     432.516    45.54
c-eigval             480       0.228     109.497    11.53
c-buildHS            480       0.008       4.037     0.43
cdiag                960       0.376     361.148    38.02
cdiag1               960       0.027      26.002     2.74
cdiag2               960       0.081      77.516     8.16
cdiag3               960       0.252     241.787    25.46
c-eigvec             480       0.541     259.527    27.32
cdiag4               480       0.031      14.993     1.58
c-buildD             480       0.132      63.183     6.65
MIXER                 80       0.006       0.516     0.05
PostSCF               16       8.625     138.001    14.53
FINAL_HF              16       8.625     138.000    14.53
DHSCF4                16       5.367      85.871     9.04
dfscf                 16       4.831      77.291     8.14
overfsm               16       0.100       1.597     0.17
writeHSX              16       0.004       0.061     0.01
state_analysis        16       0.001       0.013     0.00
siesta_move           16       0.004       0.064     0.01
Analysis               1       0.008       0.008     0.00
optical                1       0.000       0.000     0.00

>> End of run:  12-JUN-2025  14:53:56
Job completed
Job completed