 NOTE: Siesta V5 introduces some new defaults for basis-set generation
 NOTE: which might lead to slightly different numerical results.
 NOTE: Please see the manual for full details and compatibility measures.

reinit: Reading from file optimization.fdf

reinit: -----------------------------------------------------------------------
reinit: System Name:
reinit: -----------------------------------------------------------------------
reinit: System Label: AuRel
reinit: -----------------------------------------------------------------------

initatom: Reading input for the pseudopotentials and atomic orbitals ----------
Species number:   1 Atomic number:   79 Label: Au

Ground state valence configuration (from tables):   6s01  6p00  5d10  5f00

---- Processing specs for species: Au
Reading pseudopotential information in PSML from:
  Au.psml
PSML file version: 1.1
GGA--PBE XC_GGA_X_PBE--XC_GGA_C_PBE pb
PSML uuid: fa497b30-be45-11e7-41fb-494093d7a025
Semicore shell(s) with  8 electrons included in the valence for Au

---- Pseudopotential check for Au

Pseudized shells:
5s( 2.00) rc: 1.46
5p( 6.00) rc: 1.56
5d(10.00) rc: 1.56
5f( 0.00) rc: 1.60
Valence configuration for ps generation: 5s:5p:5d:6s: Total charge:  19.000000
Semicore shell(s): 5s 5p
Fallback to non-perturbative polarization scheme for Au
Please see the manual if this is not desired in principle
For Au, standard SIESTA heuristics set lmxkb to 3
 (one more than the basis l, including polarization orbitals).
Use PS.lmax or PS.KBprojectors blocks to override.

<basis_specs>
Au                   Z=  79    Mass=  196.97        Charge= 0.17977+309
Lmxo=2 Lmxkb= 3    BasisType=split      Semic=T
L=0  Nsemic=1  Cnfigmx=6
          i=1  nzeta=1  polorb=0  (5s)  (semicore shell)
            splnorm:   0.15000
               vcte:    40.000
               rinn:  -0.90000
               qcoe:    0.0000
               qyuk:    0.0000
               qwid:   0.10000E-01
                rcs:    0.0000
            lambdas:    1.0000
          i=2  nzeta=2  polorb=0  (6s)  (to be polarized non-perturbatively)
            splnorm:   0.15000
               vcte:    40.000
               rinn:  -0.90000
               qcoe:    0.0000
               qyuk:    0.0000
               qwid:   0.10000E-01
                rcs:    0.0000      0.0000
            lambdas:    1.0000      1.0000
L=1  Nsemic=1  Cnfigmx=6
          i=1  nzeta=1  polorb=0  (5p)  (semicore shell)
            splnorm:   0.15000
               vcte:    40.000
               rinn:  -0.90000
               qcoe:    0.0000
               qyuk:    0.0000
               qwid:   0.10000E-01
                rcs:    0.0000
            lambdas:    1.0000
          i=2  nzeta=1  polorb=0  (6p)  (non-perturbative polarization shell)
            splnorm:   0.15000
               vcte:    40.000
               rinn:  -0.90000
               qcoe:    0.0000
               qyuk:   0.49407-323
               qwid:   0.44466-322
                rcs:    0.0000
            lambdas:    1.0000
L=2  Nsemic=0  Cnfigmx=5
          i=1  nzeta=2  polorb=0  (5d)
            splnorm:   0.15000
               vcte:    40.000
               rinn:  -0.90000
               qcoe:    0.0000
               qyuk:    0.0000
               qwid:   0.10000E-01
                rcs:    0.0000      0.0000
            lambdas:    1.0000      1.0000
L=0  Nkbl=2  erefs: 0.17977+309 0.17977+309
L=1  Nkbl=2  erefs: 0.17977+309 0.17977+309
L=2  Nkbl=1  erefs: 0.17977+309
L=3  Nkbl=1  erefs: 0.17977+309
</basis_specs>

Using PAO.SplitTailNorm
atom: Called for Au                    (Z =  79)
Maximum radius (at nrval) set to   50.00000 8518

read_vps: Pseudopotential generation method:
read_vps: ONCVPSP-3.Hamann's oncvpsp
Valence charge in pseudo generation:   19.00000

read_vps: Pseudopotential includes a core correction:
read_vps: Pseudo-core for xc-correction

xc_check: Exchange-correlation functional:
xc_check: GGA Perdew, Burke & Ernzerhof 1996
Got Vlocal (oncv-fit) from psml data
Choosing vlocal chloc cutoff:  5.037181
qtot up to nchloc:   18.99999407
atom: Maximum radius for chlocal:    5.03718
atom: Maximum radius for r*vlocal+2*Zval:    5.03718
Reading KB projs from Au psml data
Using scalar-relativistic projectors in PSML file

PSML: Kleinman-Bylander projectors:
   l= 0   rc=  1.474132   Ekb= 18.815768
   l= 0   rc=  1.474132   Ekb= -0.390506
   l= 1   rc=  1.583336   Ekb=  4.781134
   l= 1   rc=  1.583336   Ekb= -3.699696
   l= 2   rc=  1.583336   Ekb=  2.968821
   l= 2   rc=  1.583336   Ekb=  0.574456
   l= 3   rc=  1.622038   Ekb=  2.312314

PSML: Total number of  Kleinman-Bylander projectors:  25
atom: -------------------------------------------------------------------------

atom: SANKEY-TYPE ORBITALS:
atom: Selected multiple-zeta basis: split

SPLIT: Orbitals with angular momentum L= 0

SPLIT: Basis orbitals for state 5s

SPLIT: PAO cut-off radius determined from an
SPLIT: energy shift=  0.000735 Ry
Split based on tail norm

   izeta = 1
                 lambda =    1.000000
                     rc =    2.925359
                 energy =   -7.964134
                kinetic =    2.893592
    potential(screened) =  -10.857725
       potential(ionic) =  -37.457701

SPLIT: Basis orbitals for state 6s

[...]

   izeta = 2
                 rmatch =    4.927355
              splitnorm =    0.150000
                 energy =   -0.413505
                kinetic =    2.478661
    potential(screened) =   -2.892166
       potential(ionic) =  -20.911581

[...]

SPLIT: Basis orbitals for state 5p

[...]

SPLIT: Basis orbitals for state 6p
SPLIT: Non-perturbative polarization orbs for state 6s
SPLIT: rc(1st zeta) (re)set to: 8.0332 (expansion factor: 1.0000)
Split based on tail norm

[...]

SPLIT: Orbitals with angular momentum L= 2

SPLIT: Basis orbitals for state 5d

SPLIT: PAO cut-off radius determined from an
SPLIT: energy shift=  0.000735 Ry
Split based on tail norm

   izeta = 1
                 lambda =    1.000000
                     rc =    6.393405
                 energy =   -0.504592
                kinetic =    4.935315
    potential(screened) =   -5.439906
       potential(ionic) =  -26.571989

   izeta = 2
                 rmatch =    3.462344
              splitnorm =    0.150000
                 energy =   -0.397189
                kinetic =    6.101362
    potential(screened) =   -6.498551
       potential(ionic) =  -29.253309
atom: Total number of Sankey-type orbitals: 19

atm_pop: Valence configuration (for local Pseudopot. screening):
 5s( 2.00) 6s( 1.00)
 5p( 6.00) 6p( 0.00)
 5d(10.00)
Vna: chval, zval:   19.00000  19.00000

Vna:  Cut-off radius for the neutral-atom potential:   8.033223
comcore: Pseudo-core radius Rcore=  2.583037

atom: _________________________________________________________________________

prinput: Basis input

PAO.BasisType split

%block ChemicalSpeciesLabel
    1   79 Au                      # Species index, atomic number, species label
%endblock ChemicalSpeciesLabel

%block PAO.Basis                 # Define Basis set
# WARNING: This information might be incomplete!
Au                    5                    # Species label, number of l-shells
 n=5   0   1                         # n, l, Nzeta
   2.925
   1.000
 n=6   0   2                         # n, l, Nzeta
   8.033      4.927
   1.000      1.000
 n=5   1   1                         # n, l, Nzeta
   3.518
   1.000
 n=6   1   1                         # n, l, Nzeta
   8.033
   1.000
 n=5   2   2                         # n, l, Nzeta
   6.393      3.462
   1.000      1.000
%endblock PAO.Basis

prinput: ----------------------------------------------------------------------

Dumping basis to NetCDF file Au.ion.nc
coor:   Atomic-coordinates input format  =     Cartesian coordinates
coor:                                          (in Angstroms)

siesta: Atomic coordinates (Bohr) and species
siesta:      0.00000   0.00000   0.00000  1        1
siesta:      0.00000   3.94129   3.94129  1        2
siesta:      3.94129   0.00000   3.94129  1        3
siesta:      3.94129   3.94129   0.00000  1        4
siesta:      7.88260   7.88260   7.88260  1        5
siesta:      7.88260   3.94129   3.94129  1        6
siesta:      3.94129   7.88260   3.94129  1        7

siesta: System type = molecule

initatomlists: Number of atoms, orbitals, and projectors:      7   133   175

coxmol: Writing XMOL coordinates into file AuRel.xyz

siesta: ******************** Simulation parameters ****************************
siesta:
siesta: The following are some of the parameters of the simulation.
siesta: A complete list of the parameters used, including default values,
siesta: can be found in file out.fdf
siesta:
redata: Spin configuration                          = none
redata: Number of spin components                   = 1
redata: Time-Reversal Symmetry                      = T
redata: Spin spiral                                 = F
redata: Long output                                 =   F
redata: Number of Atomic Species                    =        1
redata: Charge density info will appear in .RHO file
redata: Write Mulliken charges (when)               = none
redata: Write Mulliken Pop.                         = NO
redata: Write Hirshfeld charges (when)              = none
redata: Write Voronoi charges (when)                = none
redata: Write spin charge (when)                    = none
redata: Matel table size (NRTAB)                    =     1024
redata: Mesh Cutoff                                 =   300.0000 Ry
redata: Net charge of the system                    =     0.0000 |e|
redata: Min. number of SCF Iter                     =        0
redata: Max. number of SCF Iter                     =     1000
redata: SCF convergence failure will abort job
redata: SCF mix quantity                            = Hamiltonian
redata: Mix DM or H after convergence               =   F
redata: Recompute H after scf cycle                 =   F
redata: Mix DM in first SCF step                    =   T
redata: Write Pulay info on disk                    =   F
redata: New DM Occupancy tolerance                  = 0.000000000001
redata: No kicks to SCF
redata: DM Mixing Weight for Kicks                  =     0.5000
redata: Require Harris convergence for SCF          =   F
redata: Harris energy tolerance for SCF             =     0.000100 eV
redata: Require DM convergence for SCF              =   T
redata: DM tolerance for SCF                        =     0.000100
redata: Require EDM convergence for SCF             =   F
redata: EDM tolerance for SCF                       =     0.001000 eV
redata: Require H convergence for SCF               =   T
redata: Hamiltonian tolerance for SCF               =     0.001000 eV
redata: Require (free) Energy convergence for SCF   =   F
redata: (free) Energy tolerance for SCF             =     0.000100 eV
redata: Using DFT-D3 dispersion                     =   F
redata: Using Saved Data (generic)                  =   F
redata: Use continuation files for DM               =   T
redata: Neglect nonoverlap interactions             =   F
redata: Method of Calculation                       = Diagonalization
[...]
redata: Fix the spin of the system                  =   F
redata: Max. number of TDED Iter                    =        1
redata: Number of TDED substeps                     =        3
redata: Dynamics option                             = CG coord. optimization
redata: Variable cell                               =   F
redata: Use continuation files for CG               =   F
redata: Max atomic displ per move                   =     0.1058 Ang
redata: Maximum number of optimization moves        =       15
redata: Force tolerance                             =     0.0200 eV/Ang
mix.SCF: Pulay mixing                            = Pulay
mix.SCF:    Variant                              = stable
mix.SCF:    History steps                        = 2
mix.SCF:    Linear mixing weight                 =     0.250000
mix.SCF:    Mixing weight                        =     0.250000
mix.SCF:    SVD condition                        = 0.1000E-07
redata: Save all siesta data in one NC              =   F
redata: ***********************************************************************

%block SCF.Mixers
  Pulay
%endblock SCF.Mixers

%block SCF.Mixer.Pulay
  # Mixing method
  method pulay
  variant stable

  # Mixing options
  weight 0.2500
  weight.linear 0.2500
  history 2
%endblock SCF.Mixer.Pulay

DM_history_depth set to one: no extrapolation allowed by default for geometry relaxation
Size of DM history Fstack: 1
Total number of electrons:   133.000000
Total ionic charge:   133.000000

siesta: k-grid: Number of k-points = 1
siesta: k-point is Gamma-only

diag: Algorithm                                     = D&C
diag: Used triangular part                          = Lower
diag: Absolute tolerance                            =  0.100E-15
diag: Orthogonalization factor                      =  0.100E-05

ts: **************************************************************
ts: Save H and S matrices                           =    F
ts: Save DM and EDM matrices                        =    F
ts: Only save the overlap matrix S                  =    F
ts: **************************************************************

************************ Begin: TS CHECKS AND WARNINGS ************************
************************ End: TS CHECKS AND WARNINGS **************************

                        Begin CG opt. move =      0

outcell: Unit cell vectors (Ang):
       20.000000    0.000000    0.000000
        0.000000   20.000000    0.000000
        0.000000    0.000000   20.000000

outcell: Cell vector modules (Ang)   :   20.000000   20.000000   20.000000
outcell: Cell angles (23,13,12) (deg):     90.0000     90.0000     90.0000
outcell: Cell volume (Ang**3)        :   8000.0000
<dSpData1D:S at geom step 0
  <sparsity:sparsity for geom step 0
    nrows_g=133 nrows=133 sparsity=.8860 nnzs=15673, refcount: 7>
  <dData1D:(new from dSpData1D) n=15673, refcount: 1>
refcount: 1>
new_DM -- step:     1
Initializing Density Matrix...

Attempting to read DM from file... Failed...
DM filled with atomic data:
<dSpData2D:DM initialized from atoms
  <sparsity:sparsity for geom step 0
    nrows_g=133 nrows=133 sparsity=.8860 nnzs=15673, refcount: 8>
  <dData2D:DM n=15673 m=1, refcount: 1>
refcount: 1>
No. of atoms with KB's overlaping orbs in proc 0. Max # of overlaps:       7      73

InitMesh: MESH = 216 x 216 x 216 = 10077696
InitMesh: Mesh cutoff (required, used) =   300.000   322.366 Ry
New grid distribution [1]: sub = 2

stepf: Fermi-Dirac step function

siesta: Program's energy decomposition (eV):
siesta: Ebs     =     -5152.932017
siesta: Eions   =     35544.686385
siesta: Ena     =      3586.783995
siesta: Ekin    =      7875.058754
siesta: Enl     =       469.964700
siesta: Eso     =         0.000000
siesta: Edftu   =         0.000000
siesta: DEna    =       287.663358
siesta: DUscf   =        12.884515
siesta: DUext   =         0.000000
siesta: Ex      =     -4617.289876
siesta: Ec      =      -278.721836
siesta: Exc     =     -4896.011712
siesta: EbV     =         0.000000
siesta: eta*DQ  =         0.000000
siesta: Emadel  =         0.000000
siesta: Emeta   =         0.000000
siesta: Emolmec =         0.000000
siesta: Ekinion =         0.000000
siesta: Eharris =    -28198.112294
siesta: Etot    =    -28208.342775
siesta: FreeEng =    -28208.378551

SCF Convergence by DM+H criterion
max |DM_out - DM_in|         :     0.0000760986
max |H_out - H_in|      (eV) :     0.0009673369
SCF cycle converged after 15 iterations

Using DM_out to compute the final energy and forces
No. of atoms with KB's overlaping orbs in proc 0. Max # of overlaps:       7      73

siesta: E_KS(eV) =           -28214.8708

siesta: E_KS - E_eggbox =    -28214.8708

siesta: Atomic forces (eV/Ang):
   Tot    0.000131    0.000131    0.000410
   Max    1.447361
   Res    0.712939    sqrt( Sum f_i^2 / 3N )
   Max    1.447361    constrained

Stress tensor Voigt[x,y,z,yz,xz,xy] (kbar):        1.18        1.18        1.49        0.40        0.40        0.60
(Free)E + p*V (eV/cell)   -28221.3343
Target enthalpy (eV/cell)   -28214.9121

[...]

outcell: Cell vector modules (Ang)   :   20.000000   20.000000   20.000000
outcell: Cell angles (23,13,12) (deg):     90.0000     90.0000     90.0000
outcell: Cell volume (Ang**3)        :   8000.0000
<dSpData1D:S at geom step 1
  <sparsity:sparsity for geom step 1
    nrows_g=133 nrows=133 sparsity=.8865 nnzs=15681, refcount: 7>
  <dData1D:(new from dSpData1D) n=15681, refcount: 1>
refcount: 1>
new_DM -- step:     2
Re-using DM from previous geometries...
Number of DMs in history: 1
 DM extrapolation coefficients:
1   1.00000
New DM after history re-use:
<dSpData2D:SpM extrapolated using coords
  <sparsity:sparsity for geom step 1
    nrows_g=133 nrows=133 sparsity=.8865 nnzs=15681, refcount: 9>
  <dData2D:(temp array for extrapolation) n=15681 m=1, refcount: 1>
refcount: 1>
No. of atoms with KB's overlaping orbs in proc 0. Max # of overlaps:       7      73

[...]

        iscf     Eharris(eV)        E_KS(eV)     FreeEng(eV)     dDmax    Ef(eV) dHmax(eV)
   scf:    1   -28215.939037   -28215.183253   -28215.222260  0.128868 -5.135371  0.272426
   scf:    2   -28215.017987   -28215.130455   -28215.178269  0.189859 -5.081041  0.848967
   scf:    3   -28215.198043   -28215.186620   -28215.226190  0.171714 -5.116573  0.073156
   scf:    4   -28215.185909   -28215.186346   -28215.226470  0.008731 -5.114599  0.009741
   scf:    5   -28215.186087   -28215.186219   -28215.226481  0.001461 -5.115097  0.003975
   scf:    6   -28215.186198   -28215.186209   -28215.226483  0.000260 -5.115376  0.002238
   scf:    7   -28215.186148   -28215.186178   -28215.226485  0.000341 -5.115799  0.001468
   scf:    8   -28215.186151   -28215.186165   -28215.226486  0.000249 -5.116131  0.000768
   scf:    9   -28215.186160   -28215.186162   -28215.226486  0.000077 -5.116145  0.000371

[...]

cgvc: Finished line minimization    1.  Mean atomic displacement =    0.1537

[...]

                        Begin CG opt. move =     15

outcell: Unit cell vectors (Ang):
       20.000000    0.000000    0.000000
        0.000000   20.000000    0.000000
        0.000000    0.000000   20.000000

outcell: Cell vector modules (Ang)   :   20.000000   20.000000   20.000000
outcell: Cell angles (23,13,12) (deg):     90.0000     90.0000     90.0000
outcell: Cell volume (Ang**3)        :   8000.0000
<dSpData1D:S at geom step 15
  <sparsity:sparsity for geom step 15
    nrows_g=133 nrows=133 sparsity=.8913 nnzs=15767, refcount: 7>
  <dData1D:(new from dSpData1D) n=15767, refcount: 1>
refcount: 1>
new_DM -- step:    16
Re-using DM from previous geometries...
Number of DMs in history: 1
 DM extrapolation coefficients:
1   1.00000
New DM after history re-use:
<dSpData2D:SpM extrapolated using coords
  <sparsity:sparsity for geom step 15
    nrows_g=133 nrows=133 sparsity=.8913 nnzs=15767, refcount: 9>
  <dData2D:(temp array for extrapolation) n=15767 m=1, refcount: 1>
refcount: 1>
No. of atoms with KB's overlaping orbs in proc 0. Max # of overlaps:       7      79

InitMesh: MESH = 216 x 216 x 216 = 10077696
InitMesh: Mesh cutoff (required, used) =   300.000   322.366 Ry
New grid distribution [1]: sub = 2

        iscf     Eharris(eV)        E_KS(eV)     FreeEng(eV)     dDmax    Ef(eV) dHmax(eV)
   scf:    1   -28215.680030   -28216.098646   -28216.133304  0.077373 -4.988136  0.415048
   scf:    2   -28215.774728   -28216.001682   -28216.036339  0.118809 -5.006532  1.559560
   scf:    3   -28216.125926   -28216.105551   -28216.140208  0.094978 -4.994900  0.015702
   scf:    4   -28216.105637   -28216.105597   -28216.140254  0.000809 -4.995944  0.008734
   scf:    5   -28216.105636   -28216.105620   -28216.140277  0.000974 -4.997205  0.002716
   scf:    6   -28216.105623   -28216.105621   -28216.140279  0.000098 -4.997357  0.001688
   scf:    7   -28216.105623   -28216.105622   -28216.140279  0.000117 -4.997525  0.000367
   scf:    8   -28216.105622   -28216.105622   -28216.140279  0.000020 -4.997538  0.000134

SCF Convergence by DM+H criterion
max |DM_out - DM_in|         :     0.0000202767
max |H_out - H_in|      (eV) :     0.0001337477
SCF cycle converged after 8 iterations

Using DM_out to compute the final energy and forces
No. of atoms with KB's overlaping orbs in proc 0. Max # of overlaps:       7      79

siesta: E_KS(eV) =           -28216.1056

siesta: Atomic forces (eV/Ang):
   Tot   -0.000875   -0.000876    0.000050
   Max    0.421196
   Res    0.202972    sqrt( Sum f_i^2 / 3N )
   Max    0.421196    constrained

Stress tensor Voigt[x,y,z,yz,xz,xy] (kbar):        0.13        0.13       -0.04       -0.13       -0.13        0.09
(Free)E + p*V (eV/cell)   -28216.4957
Target enthalpy (eV/cell)   -28216.1403

cgvc: Finished line minimization    5.  Mean atomic displacement =    0.1845

outcoor: Final (unrelaxed) atomic coordinates (Ang):
    0.11094852    0.11094865    0.45081255   1       1  Au
   -0.26287458    2.50884345    1.71807648   1       2  Au
    2.50884344   -0.26287449    1.71807644   1       3  Au
    2.17528934    2.17528925    0.35301964   1       4  Au
    4.05946876    4.05946883    3.79428888   1       5  Au
    4.10441819    1.90474028    2.24051611   1       6  Au
    1.90474030    4.10441818    2.24051606   1       7  Au

coxmol: Writing XMOL coordinates into file AuRel.xyz

siesta: Program's energy decomposition (eV):
siesta: Ebs     =     -4679.553085
siesta: Eions   =     35544.686385
siesta: Ena     =      3582.308035
siesta: Ekin    =      8109.393261
siesta: Enl     =       478.346027
siesta: Eso     =         0.000000
siesta: Edftu   =         0.000000
siesta: DEna    =       107.573059
siesta: DUscf   =         2.396726
siesta: DUext   =         0.000000
siesta: Ex      =     -4670.270805
siesta: Ec      =      -281.165540
siesta: Exc     =     -4951.436344
siesta: EbV     =         0.000000
siesta: eta*DQ  =         0.000000
siesta: Emadel  =         0.000000
siesta: Emeta   =         0.000000
siesta: Emolmec =         0.000000
siesta: Ekinion =         0.000000
siesta: Eharris =    -28216.105622
siesta: Etot    =    -28216.105622
siesta: FreeEng =    -28216.140279

siesta: Final energy (eV):
siesta:  Band Struct. =   -4679.553085
siesta:       Kinetic =    8109.393261
siesta:       Hartree =   36922.214219
siesta:         Edftu =       0.000000
siesta:       Eso     =       0.000000
siesta:    Ext. field =       0.000000
siesta:         Exch. =   -4670.270805
siesta:         Corr. =    -281.165540
siesta:     Bulk bias =       0.000000
siesta:   Exch.-corr. =   -4951.436344
siesta:  Ion-electron =  -83088.115930
siesta:       Ion-ion =   14791.839172
siesta:       Ekinion =       0.000000
siesta: D3 dispersion =       0.000000
siesta:         Total =  -28216.105622
siesta:         Fermi =      -4.997538

siesta: Atomic forces (eV/Ang):
siesta:      1    0.125763    0.125763    0.092885
siesta:      2    0.246969    0.146452   -0.212691
siesta:      3    0.146451    0.246968   -0.212691
siesta:      4   -0.421196   -0.421195    0.088408
siesta:      5    0.196897    0.196897    0.199734
siesta:      6   -0.131983   -0.163775    0.022203
siesta:      7   -0.163776   -0.131984    0.022202
siesta: ----------------------------------------
siesta:    Tot   -0.000875   -0.000876    0.000050

siesta: Stress tensor (static) (eV/Ang**3):
siesta:     0.000080    0.000056   -0.000084
siesta:     0.000056    0.000080   -0.000084
siesta:    -0.000084   -0.000084   -0.000027

siesta: Cell volume =       8000.000000 Ang**3

siesta: Pressure (static):
siesta:                Solid            Molecule  Units
siesta:          -0.00000048          0.00000002  Ry/Bohr**3
siesta:          -0.00004443          0.00000161  eV/Ang**3
siesta:          -0.07118993          0.00258560  kBar
(Free)E+ p_basis*V_orbitals  =      -28207.853312
(Free)Eharris+ p_basis*V_orbitals  =      -28207.853312

siesta: Electric dipole (a.u.)  =   -0.122515   -0.122515    0.075149
siesta: Electric dipole (Debye) =   -0.311401   -0.311401    0.191010

cite: Please indicate the Siesta version in published work: 5.2.2
cite: This calculation has made use of features in the following articles
cite: which we encourage you to cite in published work.
cite: (Please see "AuRel.bib" for a BibTeX file.)
        Primary SIESTA paper
          DOI: www.doi.org/10.1088/0953-8984/14/11/302
        PSML pseudopotential format
          DOI: www.doi.org/10.1016/j.cpc.2018.02.011

Routine            Calls   Time/call    Tot.time        %
siesta                 1    1167.512    1167.512   100.00
Setup                  1       0.152       0.152     0.01
bands                  1       0.000       0.000     0.00
KSV_init               1       0.000       0.000     0.00
IterGeom              16      72.959    1167.345    99.99
geom_init             16      11.275     180.396    15.45
state_init            16       0.036       0.579     0.05
hsparse               16       0.001       0.020     0.00
overlap               16       0.032       0.513     0.04
Setup_H0              16       5.643      90.289     7.73
naefs                 32       0.000       0.003     0.00
dnaefs                32       0.000       0.001     0.00
MolMec                32       0.000       0.000     0.00
kinefsm               32       0.026       0.826     0.07
nlefsm                32       0.077       2.451     0.21
DHSCF_Init            16       5.491      87.853     7.52
DHSCF1                16       0.164       2.620     0.22
InitMesh              16       0.164       2.619     0.22
INITMESH              16       0.000       0.000     0.00
DHSCF2                16       5.327      85.233     7.30
REMESH                16       0.307       4.906     0.42
REORD                586       0.037      21.641     1.85
PHION                 16       2.751      44.021     3.77
COMM_BSC             740       0.031      22.581     1.93
POISON               189       1.762     332.962    28.52
fft                  378       0.717     270.951    23.21
setup_H              157       5.778     907.090    77.69
DHSCF                173       6.196    1071.887    91.81
DHSCF3               173       5.781    1000.145    85.66
rhoofd               173       0.714     123.475    10.58
XC                   173       2.283     394.995    33.83
GXC-CellXC           173       2.153     372.414    31.90
gridxc@cellXC        173       2.153     372.409    31.90
vmat                 173       0.497      85.983     7.36
IterSCF              141       5.820     820.679    70.29
compute_dm           141       0.021       2.940     0.25
diagon               141       0.021       2.920     0.25
r-eigvec             141       0.011       1.550     0.13
r-buildHS            141       0.000       0.023     0.00
rdiag                141       0.011       1.527     0.13
rdiag1               141       0.000       0.056     0.00
rdiag2               141       0.001       0.172     0.01
rdiag3               141       0.007       0.970     0.08
rdiag4               141       0.002       0.313     0.03
r-buildD             141       0.009       1.336     0.11
MIXER                125       0.000       0.040     0.00
PostSCF               16      10.384     166.148    14.23
FINAL_HF              16      10.384     166.146    14.23
DHSCF4                16       4.484      71.741     6.14
dfscf                 16       3.625      58.000     4.97
overfsm               16       0.012       0.189     0.02
writeHSX              16       0.001       0.013     0.00
state_analysis        16       0.001       0.019     0.00
siesta_move           16       0.006       0.092     0.01
Analysis               1       0.006       0.006     0.00
optical                1       0.000       0.000     0.00

>> End of run:   1-JUL-2025  19:33:39
Job completed
Job completed