 NOTE: Siesta V5 introduces some new defaults for basis-set generation
 NOTE: which might lead to slightly different numerical results.
 NOTE: Please see the manual for full details and compatibility measures.

reinit: Reading from file optimization.fdf

reinit: -----------------------------------------------------------------------
reinit: System Name:
reinit: -----------------------------------------------------------------------
reinit: System Label: AuRel
reinit: -----------------------------------------------------------------------

initatom: Reading input for the pseudopotentials and atomic orbitals ----------
Species number:   1 Atomic number:   79 Label: Au

Ground state valence configuration (from tables):   6s01  6p00  5d10  5f00

---- Processing specs for species: Au
Reading pseudopotential information in PSML from:
  Au.psml
PSML file version: 1.1
GGA--PBE XC_GGA_X_PBE--XC_GGA_C_PBE pb
PSML uuid: fa497b30-be45-11e7-41fb-494093d7a025
Semicore shell(s) with  8 electrons included in the valence for Au

---- Pseudopotential check for Au

Pseudized shells:
5s( 2.00) rc: 1.46
5p( 6.00) rc: 1.56
5d(10.00) rc: 1.56
5f( 0.00) rc: 1.60
Valence configuration for ps generation: 5s:5p:5d:6s: Total charge:  19.000000
Semicore shell(s): 5s 5p
Fallback to non-perturbative polarization scheme for Au
Please see the manual if this is not desired in principle
For Au, standard SIESTA heuristics set lmxkb to 3
 (one more than the basis l, including polarization orbitals).
Use PS.lmax or PS.KBprojectors blocks to override.

<basis_specs>
Au                   Z=  79    Mass=  196.97        Charge= 0.17977+309
Lmxo=2 Lmxkb= 3    BasisType=split      Semic=T
L=0  Nsemic=1  Cnfigmx=6
          i=1  nzeta=1  polorb=0  (5s)  (semicore shell)
            splnorm:   0.15000
               vcte:    40.000
               rinn:  -0.90000
               qcoe:    0.0000
               qyuk:    0.0000
               qwid:   0.10000E-01
                rcs:    0.0000
            lambdas:    1.0000
          i=2  nzeta=2  polorb=0  (6s)  (to be polarized non-perturbatively)
            splnorm:   0.15000
               vcte:    40.000
               rinn:  -0.90000
               qcoe:    0.0000
               qyuk:    0.0000
               qwid:   0.10000E-01
                rcs:    0.0000      0.0000
            lambdas:    1.0000      1.0000
L=1  Nsemic=1  Cnfigmx=6
          i=1  nzeta=1  polorb=0  (5p)  (semicore shell)
            splnorm:   0.15000
               vcte:    40.000
               rinn:  -0.90000
               qcoe:    0.0000
               qyuk:    0.0000
               qwid:   0.10000E-01
                rcs:    0.0000
            lambdas:    1.0000
          i=2  nzeta=1  polorb=0  (6p)  (non-perturbative polarization shell)
            splnorm:   0.15000
               vcte:    40.000
               rinn:  -0.90000
               qcoe:    0.0000
               qyuk:   0.49407-323
               qwid:   0.44466-322
                rcs:    0.0000
            lambdas:    1.0000
L=2  Nsemic=0  Cnfigmx=5
          i=1  nzeta=2  polorb=0  (5d)
            splnorm:   0.15000
               vcte:    40.000
               rinn:  -0.90000
               qcoe:    0.0000
               qyuk:    0.0000
               qwid:   0.10000E-01
                rcs:    0.0000      0.0000
            lambdas:    1.0000      1.0000
L=0  Nkbl=2  erefs: 0.17977+309 0.17977+309
L=1  Nkbl=2  erefs: 0.17977+309 0.17977+309
L=2  Nkbl=1  erefs: 0.17977+309
L=3  Nkbl=1  erefs: 0.17977+309
</basis_specs>

Using PAO.SplitTailNorm
atom: Called for Au                    (Z =  79)
Maximum radius (at nrval) set to   50.00000 8518

read_vps: Pseudopotential generation method:
read_vps: ONCVPSP-3.Hamann's oncvpsp
Valence charge in pseudo generation:   19.00000

read_vps: Pseudopotential includes a core correction:
read_vps: Pseudo-core for xc-correction

xc_check: Exchange-correlation functional:
xc_check: GGA Perdew, Burke & Ernzerhof 1996
Got Vlocal (oncv-fit) from psml data
Choosing vlocal chloc cutoff:  5.037181
qtot up to nchloc:   18.99999407
atom: Maximum radius for chlocal:    5.03718
atom: Maximum radius for r*vlocal+2*Zval:    5.03718
Reading KB projs from Au psml data
Using scalar-relativistic projectors in PSML file

PSML: Kleinman-Bylander projectors:
   l= 0   rc=  1.474132   Ekb= 18.815768
   l= 0   rc=  1.474132   Ekb= -0.390506
   l= 1   rc=  1.583336   Ekb=  4.781134
   l= 1   rc=  1.583336   Ekb= -3.699696
   l= 2   rc=  1.583336   Ekb=  2.968821
   l= 2   rc=  1.583336   Ekb=  0.574456
   l= 3   rc=  1.622038   Ekb=  2.312314

PSML: Total number of  Kleinman-Bylander projectors:  25
atom: -------------------------------------------------------------------------

atom: SANKEY-TYPE ORBITALS:
atom: Selected multiple-zeta basis: split

SPLIT: Orbitals with angular momentum L= 0

SPLIT: Basis orbitals for state 5s

SPLIT: PAO cut-off radius determined from an
SPLIT: energy shift=  0.000735 Ry
Split based on tail norm

   izeta = 1
                 lambda =    1.000000
                     rc =    2.925359
                 energy =   -7.964134
                kinetic =    2.893592
    potential(screened) =  -10.857725
       potential(ionic) =  -37.457701

SPLIT: Basis orbitals for state 6s

[...]

   izeta = 2
                 rmatch =    4.927355
              splitnorm =    0.150000
                 energy =   -0.413505
                kinetic =    2.478661
    potential(screened) =   -2.892166
       potential(ionic) =  -20.911581

[...]

SPLIT: Basis orbitals for state 5p

[...]

SPLIT: Basis orbitals for state 6p
SPLIT: Non-perturbative polarization orbs for state 6s
SPLIT: rc(1st zeta) (re)set to: 8.0332 (expansion factor: 1.0000)
Split based on tail norm

[...]

SPLIT: Orbitals with angular momentum L= 2

SPLIT: Basis orbitals for state 5d

SPLIT: PAO cut-off radius determined from an
SPLIT: energy shift=  0.000735 Ry
Split based on tail norm

   izeta = 1
                 lambda =    1.000000
                     rc =    6.393405
                 energy =   -0.504592
                kinetic =    4.935315
    potential(screened) =   -5.439906
       potential(ionic) =  -26.571989

   izeta = 2
                 rmatch =    3.462344
              splitnorm =    0.150000
                 energy =   -0.397189
                kinetic =    6.101362
    potential(screened) =   -6.498551
       potential(ionic) =  -29.253309
atom: Total number of Sankey-type orbitals: 19

atm_pop: Valence configuration (for local Pseudopot. screening):
 5s( 2.00) 6s( 1.00)
 5p( 6.00) 6p( 0.00)
 5d(10.00)
Vna: chval, zval:   19.00000  19.00000

Vna:  Cut-off radius for the neutral-atom potential:   8.033223
comcore: Pseudo-core radius Rcore=  2.583037

atom: _________________________________________________________________________

prinput: Basis input

PAO.BasisType split

%block ChemicalSpeciesLabel
    1   79 Au                      # Species index, atomic number, species label
%endblock ChemicalSpeciesLabel

%block PAO.Basis                 # Define Basis set
# WARNING: This information might be incomplete!
Au                    5                    # Species label, number of l-shells
 n=5   0   1                         # n, l, Nzeta
   2.925
   1.000
 n=6   0   2                         # n, l, Nzeta
   8.033      4.927
   1.000      1.000
 n=5   1   1                         # n, l, Nzeta
   3.518
   1.000
 n=6   1   1                         # n, l, Nzeta
   8.033
   1.000
 n=5   2   2                         # n, l, Nzeta
   6.393      3.462
   1.000      1.000
%endblock PAO.Basis

prinput: ----------------------------------------------------------------------

Dumping basis to NetCDF file Au.ion.nc
coor:   Atomic-coordinates input format  =     Cartesian coordinates
coor:                                          (in Angstroms)

siesta: Atomic coordinates (Bohr) and species
siesta:      0.79400   0.40861   1.18464  1        1
siesta:      0.94658   4.62537   4.57597  1        2
siesta:      4.77710  -0.17136   4.34000  1        3
siesta:      4.04241   4.33712  -0.00253  1        4
siesta:      5.13887   6.90391   6.77422  1        5
siesta:      7.45429   0.39438  -0.27960  1        6
siesta:      0.01950   7.53062   0.83757  1        7
siesta:      0.37789  -0.04082   6.91218  1        8
siesta:      7.94868   3.88679   4.02686  1        9
siesta:      0.02212   4.74620   9.39353  1       10
siesta:      9.94499  -0.88106   3.91197  1       11
siesta:      3.94129   9.93416   0.00000  1       12

siesta: System type = molecule

initatomlists: Number of atoms, orbitals, and projectors:     12   228   300

coxmol: Writing XMOL coordinates into file AuRel.xyz

siesta: ******************** Simulation parameters ****************************
siesta:
siesta: The following are some of the parameters of the simulation.
siesta: A complete list of the parameters used, including default values,
siesta: can be found in file out.fdf
siesta:
redata: Spin configuration                          = none
redata: Number of spin components                   = 1
redata: Time-Reversal Symmetry                      = T
redata: Spin spiral                                 = F
redata: Long output                                 =   F
redata: Number of Atomic Species                    =        1
redata: Charge density info will appear in .RHO file
redata: Write Mulliken charges (when)               = none
redata: Write Mulliken Pop.                         = NO
redata: Write Hirshfeld charges (when)              = none
redata: Write Voronoi charges (when)                = none
redata: Write spin charge (when)                    = none
redata: Matel table size (NRTAB)                    =     1024
redata: Mesh Cutoff                                 =   300.0000 Ry
redata: Net charge of the system                    =     0.0000 |e|
redata: Min. number of SCF Iter                     =        0
redata: Max. number of SCF Iter                     =     1000
redata: SCF convergence failure will abort job
redata: SCF mix quantity                            = Hamiltonian
redata: Mix DM or H after convergence               =   F
redata: Recompute H after scf cycle                 =   F
redata: Mix DM in first SCF step                    =   T
redata: Write Pulay info on disk                    =   F
redata: New DM Occupancy tolerance                  = 0.000000000001
redata: No kicks to SCF
redata: DM Mixing Weight for Kicks                  =     0.5000
redata: Require Harris convergence for SCF          =   F
redata: Harris energy tolerance for SCF             =     0.000100 eV
redata: Require DM convergence for SCF              =   T
redata: DM tolerance for SCF                        =     0.000100
redata: Require EDM convergence for SCF             =   F
redata: EDM tolerance for SCF                       =     0.001000 eV
redata: Require H convergence for SCF               =   T
redata: Hamiltonian tolerance for SCF               =     0.001000 eV
redata: Require (free) Energy convergence for SCF   =   F
redata: (free) Energy tolerance for SCF             =     0.000100 eV
redata: Using DFT-D3 dispersion                     =   F
[...]
ts: Save H and S matrices                           =    F
ts: Save DM and EDM matrices                        =    F
ts: Only save the overlap matrix S                  =    F
ts: **************************************************************

************************ Begin: TS CHECKS AND WARNINGS ************************
************************ End: TS CHECKS AND WARNINGS **************************

                        Begin CG opt. move =      0

outcell: Unit cell vectors (Ang):
       20.000000    0.000000    0.000000
        0.000000   20.000000    0.000000
        0.000000    0.000000   20.000000

outcell: Cell vector modules (Ang)   :   20.000000   20.000000   20.000000
outcell: Cell angles (23,13,12) (deg):     90.0000     90.0000     90.0000
outcell: Cell volume (Ang**3)        :   8000.0000
<dSpData1D:S at geom step 0
  <sparsity:sparsity for geom step 0
    nrows_g=228 nrows=228 sparsity=.8008 nnzs=41628, refcount: 7>
  <dData1D:(new from dSpData1D) n=41628, refcount: 1>
refcount: 1>
new_DM -- step:     1
Initializing Density Matrix...

Attempting to read DM from file... Failed...
DM filled with atomic data:
<dSpData2D:DM initialized from atoms
  <sparsity:sparsity for geom step 0
    nrows_g=228 nrows=228 sparsity=.8008 nnzs=41628, refcount: 8>
  <dData2D:DM n=41628 m=1, refcount: 1>
refcount: 1>
No. of atoms with KB's overlaping orbs in proc 0. Max # of overlaps:      12     127

InitMesh: MESH = 216 x 216 x 216 = 10077696
InitMesh: Mesh cutoff (required, used) =   300.000   322.366 Ry
New grid distribution [1]: sub = 2

stepf: Fermi-Dirac step function

siesta: Program's energy decomposition (eV):
siesta: Ebs     =     -9159.268133
siesta: Eions   =     60933.748089
siesta: Ena     =      6137.214606
siesta: Ekin    =     13458.749716
siesta: Enl     =       810.086879
siesta: Eso     =         0.000000
siesta: Edftu   =         0.000000
siesta: DEna    =       536.271980
siesta: DUscf   =        28.180984
siesta: DUext   =         0.000000
siesta: Ex      =     -7912.575892
siesta: Ec      =      -481.129192
siesta: Exc     =     -8393.705085
siesta: EbV     =         0.000000
siesta: eta*DQ  =         0.000000
siesta: Emadel  =         0.000000
siesta: Emeta   =         0.000000
siesta: Emolmec =         0.000000
siesta: Ekinion =         0.000000
siesta: Eharris =    -48312.271717
siesta: Etot    =    -48356.949009
siesta: FreeEng =    -48356.952076

SCF Convergence by DM+H criterion
max |DM_out - DM_in|         :     0.0000824921
max |H_out - H_in|      (eV) :     0.0006421040
SCF cycle converged after 30 iterations

Using DM_out to compute the final energy and forces
No. of atoms with KB's overlaping orbs in proc 0. Max # of overlaps:      12     127

siesta: E_KS(eV) =           -48372.1967

siesta: E_KS - E_eggbox =    -48372.1967

siesta: Atomic forces (eV/Ang):
   Tot   -0.000973   -0.001651    0.000354
   Max    1.887889
   Res    0.503876    sqrt( Sum f_i^2 / 3N )
   Max    1.887889    constrained

Stress tensor Voigt[x,y,z,yz,xz,xy] (kbar):       -0.49       -0.43       -0.43        0.51       -0.08       -0.13
(Free)E + p*V (eV/cell)   -48369.9681
Target enthalpy (eV/cell)   -48372.2158

[...]

outcell: Cell vector modules (Ang)   :   20.000000   20.000000   20.000000
outcell: Cell angles (23,13,12) (deg):     90.0000     90.0000     90.0000
outcell: Cell volume (Ang**3)        :   8000.0000
<dSpData1D:S at geom step 1
  <sparsity:sparsity for geom step 1
    nrows_g=228 nrows=228 sparsity=.8038 nnzs=41786, refcount: 7>
  <dData1D:(new from dSpData1D) n=41786, refcount: 1>
refcount: 1>
new_DM -- step:     2
Re-using DM from previous geometries...
Number of DMs in history: 1
 DM extrapolation coefficients:
1   1.00000
New DM after history re-use:
<dSpData2D:SpM extrapolated using coords
  <sparsity:sparsity for geom step 1
    nrows_g=228 nrows=228 sparsity=.8038 nnzs=41786, refcount: 9>
  <dData2D:(temp array for extrapolation) n=41786 m=1, refcount: 1>
refcount: 1>
No. of atoms with KB's overlaping orbs in proc 0. Max # of overlaps:      12     127

[...]

        iscf     Eharris(eV)        E_KS(eV)     FreeEng(eV)     dDmax    Ef(eV) dHmax(eV)
   scf:    1   -48371.909360   -48372.322198   -48372.351502  0.246427 -4.944604  0.839412
   scf:    2   -48367.253650   -48370.792914   -48370.792988  0.625738 -4.984031  5.065153
   scf:    3   -48372.890168   -48372.379222   -48372.393288  0.397463 -4.958233  0.641183
   scf:    4   -48372.245231   -48372.365369   -48372.389048  0.188097 -4.959627  0.608874
   scf:    5   -48372.399633   -48372.400988   -48372.420248  0.111607 -4.958609  0.081419
   scf:    6   -48372.400910   -48372.401333   -48372.420821  0.014532 -4.959067  0.028831
   scf:    7   -48372.400799   -48372.401086   -48372.420857  0.002181 -4.958982  0.016055
   scf:    8   -48372.401368   -48372.401290   -48372.420817  0.006048 -4.958781  0.029480
   scf:    9   -48372.401100   -48372.401231   -48372.420880  0.004667 -4.958823  0.005852
   scf:   10   -48372.401165   -48372.401199   -48372.420884  0.000347 -4.958715  0.002515
   scf:   11   -48372.401258   -48372.401229   -48372.420885  0.000357 -4.958625  0.004328
   scf:   12   -48372.401191   -48372.401210   -48372.420885  0.000516 -4.958597  0.001674
   scf:   13   -48372.401216   -48372.401213   -48372.420885  0.000202 -4.958545  0.001865
   scf:   14   -48372.401213   -48372.401213   -48372.420886  0.000127 -4.958507  0.001004
   scf:   15   -48372.401218   -48372.401216   -48372.420886  0.000092 -4.958472  0.001306
   scf:   16   -48372.401210   -48372.401213   -48372.420886  0.000131 -4.958461  0.000569
   scf:   17   -48372.401217   -48372.401215   -48372.420886  0.000051 -4.958440  0.000692

[...]

cgvc: Finished line minimization    1.  Mean atomic displacement =    0.0991

[...]

cgvc: Finished line minimization    5.  Mean atomic displacement =    0.1204

                        Begin CG opt. move =     15

outcell: Unit cell vectors (Ang):
       20.000000    0.000000    0.000000
        0.000000   20.000000    0.000000
        0.000000    0.000000   20.000000

outcell: Cell vector modules (Ang)   :   20.000000   20.000000   20.000000
outcell: Cell angles (23,13,12) (deg):     90.0000     90.0000     90.0000
outcell: Cell volume (Ang**3)        :   8000.0000
<dSpData1D:S at geom step 15
  <sparsity:sparsity for geom step 15
    nrows_g=228 nrows=228 sparsity=.8284 nnzs=43064, refcount: 7>
  <dData1D:(new from dSpData1D) n=43064, refcount: 1>
refcount: 1>
new_DM -- step:    16
Re-using DM from previous geometries...
Number of DMs in history: 1
 DM extrapolation coefficients:
1   1.00000
New DM after history re-use:
<dSpData2D:SpM extrapolated using coords
  <sparsity:sparsity for geom step 15
    nrows_g=228 nrows=228 sparsity=.8284 nnzs=43064, refcount: 9>
  <dData2D:(temp array for extrapolation) n=43064 m=1, refcount: 1>
refcount: 1>
No. of atoms with KB's overlaping orbs in proc 0. Max # of overlaps:      12     126

InitMesh: MESH = 216 x 216 x 216 = 10077696
InitMesh: Mesh cutoff (required, used) =   300.000   322.366 Ry
New grid distribution [1]: sub = 2

        iscf     Eharris(eV)        E_KS(eV)     FreeEng(eV)     dDmax    Ef(eV) dHmax(eV)
   scf:    1   -48373.420129   -48372.907249   -48372.908372  0.151257 -4.950111  0.620370
   scf:    2   -48370.220462   -48372.076732   -48372.076981  0.395377 -4.922182  3.614036
   scf:    3   -48373.090326   -48372.936470   -48372.937593  0.317041 -4.945329  0.110891
   scf:    4   -48372.937427   -48372.937389   -48372.938594  0.015362 -4.944708  0.028700
   scf:    5   -48372.937601   -48372.937523   -48372.938732  0.002189 -4.944232  0.015400
   scf:    6   -48372.937571   -48372.937551   -48372.938771  0.001158 -4.943907  0.009758
   scf:    7   -48372.937566   -48372.937561   -48372.938789  0.001340 -4.943717  0.005835
   scf:    8   -48372.937568   -48372.937566   -48372.938796  0.000872 -4.943593  0.005012
   scf:    9   -48372.937568   -48372.937567   -48372.938799  0.000525 -4.943549  0.002520
   scf:   10   -48372.937569   -48372.937568   -48372.938801  0.000202 -4.943477  0.002219
   scf:   11   -48372.937566   -48372.937568   -48372.938802  0.000420 -4.943446  0.001799
   scf:   12   -48372.937568   -48372.937568   -48372.938803  0.000272 -4.943428  0.001146
   scf:   13   -48372.937568   -48372.937568   -48372.938803  0.000101 -4.943416  0.000626
   scf:   14   -48372.937568   -48372.937568   -48372.938803  0.000049 -4.943397  0.000558

SCF Convergence by DM+H criterion
max |DM_out - DM_in|         :     0.0000489720
max |H_out - H_in|      (eV) :     0.0005580814
SCF cycle converged after 14 iterations

Using DM_out to compute the final energy and forces
No. of atoms with KB's overlaping orbs in proc 0. Max # of overlaps:      12     126

siesta: E_KS(eV) =           -48372.9376

siesta: Atomic forces (eV/Ang):
   Tot    0.002389    0.000802    0.000434
   Max    0.644028
   Res    0.243056    sqrt( Sum f_i^2 / 3N )
   Max    0.644028    constrained

Stress tensor Voigt[x,y,z,yz,xz,xy] (kbar):       -0.06       -0.34       -0.25       -0.14        0.04        0.40
(Free)E + p*V (eV/cell)   -48371.8366
Target enthalpy (eV/cell)   -48372.9388

outcoor: Final (unrelaxed) atomic coordinates (Ang):
    0.64319089    0.19499582    0.71477803   1       1  Au
    0.53222302    2.55694452    2.18986718   1       2  Au
    2.65420200   -0.39462699    2.51392187   1       3  Au
    2.12348576    2.47124087   -0.02548963   1       4  Au
    2.60367778    3.61018013    3.71974986   1       5  Au
    3.65806447    0.32055554   -0.08449912   1       6  Au
   -0.29749259    3.99158528    0.17549013   1       7  Au
    0.29624276    0.01352198    3.60146467   1       8  Au
    4.06156492    2.11380740    2.07791071   1       9  Au
    0.25108079    2.62708173    4.81565092   1      10  Au
    5.24355553   -0.52007083    2.01670579   1      11  Au
    2.25844222    5.06705937    0.33748604   1      12  Au

coxmol: Writing XMOL coordinates into file AuRel.xyz

siesta: Program's energy decomposition (eV):
siesta: Ebs     =     -8051.594074
siesta: Eions   =     60933.748089
siesta: Ena     =      6137.272744
siesta: Ekin    =     13894.873815
siesta: Enl     =       820.953229
siesta: Eso     =         0.000000
siesta: Edftu   =         0.000000
siesta: DEna    =       193.492101
siesta: DUscf   =         4.504558
siesta: DUext   =         0.000000
siesta: Ex      =     -8006.330939
siesta: Ec      =      -483.954987
siesta: Exc     =     -8490.285926
siesta: EbV     =         0.000000
siesta: eta*DQ  =         0.000000
siesta: Emadel  =         0.000000
siesta: Emeta   =         0.000000
siesta: Emolmec =         0.000000
siesta: Ekinion =         0.000000
siesta: Eharris =    -48372.937568
siesta: Etot    =    -48372.937568
siesta: FreeEng =    -48372.938803

siesta: Final energy (eV):
siesta:  Band Struct. =   -8051.594074
siesta:       Kinetic =   13894.873815
siesta:       Hartree =   77867.287609
siesta:         Edftu =       0.000000
siesta:       Eso     =       0.000000
siesta:    Ext. field =       0.000000
siesta:         Exch. =   -8006.330939
siesta:         Corr. =    -483.954987
siesta:     Bulk bias =       0.000000
siesta:   Exch.-corr. =   -8490.285926
siesta:  Ion-electron = -171600.108729
siesta:       Ion-ion =   39955.295663
siesta:       Ekinion =       0.000000
siesta: D3 dispersion =       0.000000
siesta:         Total =  -48372.937568
siesta:         Fermi =      -4.943397

siesta: Atomic forces (eV/Ang):
siesta:      1    0.227138   -0.028133    0.056603
siesta:      2    0.067655   -0.157895    0.644028
siesta:      3   -0.057179   -0.065046    0.234077
siesta:      4   -0.100510   -0.162124   -0.452119
siesta:      5   -0.181751    0.001616   -0.210995
siesta:      6   -0.012139   -0.371336   -0.078361
siesta:      7    0.028350    0.434034   -0.520266
siesta:      8    0.005108    0.150099   -0.280615
siesta:      9   -0.071811   -0.099740   -0.071704
siesta:     10   -0.037502    0.140087    0.249213
siesta:     11    0.339101    0.017484   -0.074344
siesta:     12   -0.204071    0.141756    0.504918
siesta: ----------------------------------------
siesta:    Tot    0.002389    0.000802    0.000434

siesta: Stress tensor (static) (eV/Ang**3):
siesta:    -0.000040    0.000252    0.000025
siesta:     0.000252   -0.000215   -0.000085
siesta:     0.000025   -0.000085   -0.000158

siesta: Cell volume =       8000.000000 Ang**3

siesta: Pressure (static):
siesta:                Solid            Molecule  Units
siesta:           0.00000150          0.00000003  Ry/Bohr**3
siesta:           0.00013778          0.00000248  eV/Ang**3
siesta:           0.22074144          0.00397016  kBar
(Free)E+ p_basis*V_orbitals  =      -48358.732573
(Free)Eharris+ p_basis*V_orbitals  =      -48358.732573

siesta: Electric dipole (a.u.)  =   -0.163732    0.423031   -0.047634
siesta: Electric dipole (Debye) =   -0.416165    1.075239   -0.121073

cite: Please indicate the Siesta version in published work: 5.2.2
cite: This calculation has made use of features in the following articles
cite: which we encourage you to cite in published work.
cite: (Please see "AuRel.bib" for a BibTeX file.)
        Primary SIESTA paper
          DOI: www.doi.org/10.1088/0953-8984/14/11/302
        PSML pseudopotential format
          DOI: www.doi.org/10.1016/j.cpc.2018.02.011

Routine            Calls   Time/call    Tot.time        %
siesta                 1    1585.570    1585.570   100.00
Setup                  1       0.159       0.159     0.01
bands                  1       0.000       0.000     0.00
KSV_init               1       0.000       0.000     0.00
IterGeom              16      99.087    1585.399    99.99
geom_init             16      10.133     162.133    10.23
state_init            16       0.043       0.690     0.04
hsparse               16       0.002       0.036     0.00
overlap               16       0.037       0.598     0.04
Setup_H0              16       5.322      85.150     5.37
naefs                 32       0.000       0.004     0.00
dnaefs                32       0.000       0.001     0.00
MolMec                32       0.000       0.000     0.00
kinefsm               32       0.028       0.893     0.06
nlefsm                32       0.095       3.053     0.19
DHSCF_Init            16       5.163      82.602     5.21
DHSCF1                16       0.118       1.891     0.12
InitMesh              16       0.118       1.889     0.12
INITMESH              16       0.000       0.000     0.00
DHSCF2                16       5.044      80.710     5.09
REMESH                16       0.333       5.336     0.34
REORD                816       0.021      17.320     1.09
PHION                 16       3.035      48.558     3.06
COMM_BSC            1200       0.018      21.777     1.37
POISON               304       1.057     321.261    20.26
fft                  608       0.430     261.560    16.50
setup_H              272       4.886    1329.029    83.82
DHSCF                288       5.150    1483.202    93.54
DHSCF3               288       4.890    1408.334    88.82
rhoofd               288       0.966     278.072    17.54
XC                   288       1.934     556.926    35.12
GXC-CellXC           288       1.845     531.219    33.50
gridxc@cellXC        288       1.844     531.215    33.50
vmat                 288       0.637     183.482    11.57
IterSCF              256       4.949    1266.886    79.90
compute_dm           256       0.054      13.751     0.87
diagon               256       0.054      13.697     0.86
r-eigvec             256       0.029       7.343     0.46
r-buildHS            256       0.000       0.075     0.00
rdiag                256       0.028       7.267     0.46
rdiag1               256       0.001       0.237     0.01
rdiag2               256       0.003       0.710     0.04
rdiag3               256       0.017       4.370     0.28
rdiag4               256       0.007       1.911     0.12
r-buildD             256       0.024       6.270     0.40
MIXER                240       0.001       0.122     0.01
PostSCF               16       9.769     156.300     9.86
FINAL_HF              16       9.769     156.299     9.86
DHSCF4                16       4.679      74.868     4.72
dfscf                 16       3.955      63.275     3.99
overfsm               16       0.017       0.271     0.02
writeHSX              16       0.001       0.014     0.00
state_analysis        16       0.001       0.012     0.00
siesta_move           16       0.004       0.056     0.00
Analysis               1       0.004       0.004     0.00
optical                1       0.000       0.000     0.00

>> End of run:   1-JUL-2025  23:12:54
Job completed
Job completed