 NOTE: Siesta V5 introduces some new defaults for basis-set generation
 NOTE: which might lead to slightly different numerical results.
 NOTE: Please see the manual for full details and compatibility measures.

reinit: Reading from file relaxation.fdf

reinit: -----------------------------------------------------------------------
reinit: System Name:
reinit: -----------------------------------------------------------------------
reinit: System Label: SurRel
reinit: -----------------------------------------------------------------------

initatom: Reading input for the pseudopotentials and atomic orbitals ----------
Species number:   1 Atomic number:   22 Label: Ti
Species number:   2 Atomic number:    8 Label: O

Ground state valence configuration (from tables):   4s02  4p00  3d02  4f00
Ground state valence configuration (from tables):   2s02  2p04  3d00  4f00

---- Processing specs for species: Ti
Reading pseudopotential information in PSML from:
  Ti.psml
PSML file version: 1.1
GGA--PBE XC_GGA_X_PBE--XC_GGA_C_PBE pb
PSML uuid: caed23e0-be41-11e7-4603-0bd897f88bea
Semicore shell(s) with  8 electrons included in the valence for Ti

---- Processing specs for species: O
Reading pseudopotential information in PSML from:
  O.psml
PSML file version: 1.1
GGA--PBE XC_GGA_X_PBE--XC_GGA_C_PBE pb
PSML uuid: 3cff85a0-be41-11e7-6c5c-1b1fe64d18ef

---- Pseudopotential check for Ti

Pseudized shells:
3s( 2.00) rc: 1.36
3p( 6.00) rc: 1.31
3d( 2.00) rc: 1.66
Valence configuration for ps generation: 3s:3p:3d:4s: Total charge:  12.000000
Semicore shell(s): 3s 3p
Fallback to non-perturbative polarization scheme for Ti
Please see the manual if this is not desired in principle

---- Pseudopotential check for O

Pseudized shells:
2s( 2.00) rc: 1.36
2p( 4.00) rc: 1.46
3d( 0.00) rc: 1.26
Valence configuration for ps generation: 2s:2p: Total charge:   6.000000
For Ti, standard SIESTA heuristics set lmxkb to 3
 (one more than the basis l, including polarization orbitals).
Use PS.lmax or PS.KBprojectors blocks to override.
For O, standard SIESTA heuristics set lmxkb to 3
 (one more than the basis l, including polarization orbitals).
Use PS.lmax or PS.KBprojectors blocks to override.
Ti pseudopotential only contains V_ls up to l=2 -- lmxkb reset.
O pseudopotential only contains V_ls up to l=2 -- lmxkb reset.

<basis_specs>
Ti                   Z=  22    Mass=  47.867        Charge= 0.17977+309
Lmxo=2 Lmxkb= 2    BasisType=split      Semic=T
L=0  Nsemic=1  Cnfigmx=4
          i=1  nzeta=1  polorb=0  (3s)  (semicore shell)
            splnorm:   0.15000
               vcte:    40.000
               rinn:  -0.90000
               qcoe:    0.0000
               qyuk:    0.0000
               qwid:   0.10000E-01
                rcs:    0.0000
            lambdas:    1.0000
          i=2  nzeta=2  polorb=0  (4s)  (to be polarized non-perturbatively)
            splnorm:   0.15000
               vcte:    40.000
               rinn:  -0.90000
               qcoe:    0.0000
               qyuk:    0.0000
               qwid:   0.10000E-01
                rcs:    0.0000      0.0000
            lambdas:    1.0000      1.0000
L=1  Nsemic=1  Cnfigmx=4
          i=1  nzeta=1  polorb=0  (3p)  (semicore shell)
            splnorm:   0.15000
               vcte:    40.000
               rinn:  -0.90000
               qcoe:    0.0000
               qyuk:    0.0000
               qwid:   0.10000E-01
                rcs:    0.0000
            lambdas:    1.0000
          i=2  nzeta=1  polorb=0  (4p)  (non-perturbative polarization shell)
            splnorm:   0.15000
               vcte:    40.000
               rinn:  -0.90000
               qcoe:    0.0000
               qyuk:   0.49407-323
               qwid:   0.44466-322
                rcs:    0.0000
            lambdas:    1.0000
L=2  Nsemic=0  Cnfigmx=3
          i=1  nzeta=2  polorb=0  (3d)
            splnorm:   0.15000
               vcte:    40.000
               rinn:  -0.90000
               qcoe:    0.0000
               qyuk:    0.0000
               qwid:   0.10000E-01
                rcs:    0.0000      0.0000
            lambdas:    1.0000      1.0000
L=0  Nkbl=2  erefs: 0.17977+309 0.17977+309
L=1  Nkbl=2  erefs: 0.17977+309 0.17977+309
L=2  Nkbl=1  erefs: 0.17977+309
</basis_specs>

Using PAO.SplitTailNorm
atom: Called for Ti                    (Z =  22)
Maximum radius (at nrval) set to   50.00000 8518

read_vps: Pseudopotential generation method:
read_vps: ONCVPSP-3.Hamann's oncvpsp
Valence charge in pseudo generation:   12.00000

read_vps: Pseudopotential includes a core correction:
read_vps: Pseudo-core for xc-correction

xc_check: Exchange-correlation functional:
xc_check: GGA Perdew, Burke & Ernzerhof 1996
Got Vlocal (oncv-fit) from psml data
Choosing vlocal chloc cutoff:  3.029916
qtot up to nchloc:   12.00014688
atom: Maximum radius for chlocal:    3.02992
atom: Maximum radius for r*vlocal+2*Zval:    3.02992
Reading KB projs from Ti psml data
Using scalar-relativistic projectors in PSML file

PSML: Kleinman-Bylander projectors:
   l= 0   rc=  1.375180   Ekb= 22.724697
   l= 0   rc=  1.375180   Ekb=  2.527278
   l= 1   rc=  1.326200   Ekb=  3.950805
   l= 1   rc=  1.327537   Ekb= -0.169333
   l= 2   rc=  1.683555   Ekb=-10.372181
   l= 2   rc=  1.683555   Ekb= -2.954901

PSML: Total number of  Kleinman-Bylander projectors:  18
atom: -------------------------------------------------------------------------

atom: SANKEY-TYPE ORBITALS:
atom: Selected multiple-zeta basis: split

SPLIT: Orbitals with angular momentum L= 0

SPLIT: Basis orbitals for state 3s

SPLIT: PAO cut-off radius determined from an
SPLIT: energy shift=  0.022050 Ry
Split based on tail norm

   izeta = 1
                 lambda =    1.000000
                     rc =    2.635420
                 energy =   -4.579527
                kinetic =    2.326942
    potential(screened) =   -6.906469
       potential(ionic) =  -23.072621

[...]

   izeta = 2
                 rmatch =    5.301264
              splitnorm =    0.150000
                 energy =   -0.140155
                kinetic =    1.418596
    potential(screened) =   -1.558752
       potential(ionic) =  -10.896893

[...]

SPLIT: Basis orbitals for state 3p

[...]

SPLIT: Basis orbitals for state 4p
SPLIT: Non-perturbative polarization orbs for state 4s
SPLIT: rc(1st zeta) (re)set to: 6.8440 (expansion factor: 1.0000)
Split based on tail norm

[...]

SPLIT: Basis orbitals for state 3d

[...]

   izeta = 2
                 rmatch =    3.163483
              splitnorm =    0.150000
                 energy =   -0.141333
                kinetic =    8.704185
    potential(screened) =   -8.845518
       potential(ionic) =  -23.898466
atom: Total number of Sankey-type orbitals: 19

atm_pop: Valence configuration (for local Pseudopot. screening):
 3s( 2.00) 4s( 2.00)
 3p( 6.00) 4p( 0.00)
 3d( 2.00)
Vna: chval, zval:   12.00000  12.00000

Vna:  Cut-off radius for the neutral-atom potential:   6.843982
comcore: Pseudo-core radius Rcore=  1.766828

atom: _________________________________________________________________________

<basis_specs>
O                    Z=   8    Mass=  15.999        Charge= 0.17977+309
Lmxo=2 Lmxkb= 2    BasisType=split      Semic=F
L=0  Nsemic=0  Cnfigmx=2
          i=1  nzeta=2  polorb=0  (2s)
            splnorm:   0.15000
               vcte:    40.000
               rinn:  -0.90000
               qcoe:    0.0000
               qyuk:    0.0000
               qwid:   0.10000E-01
                rcs:    0.0000      0.0000
            lambdas:    1.0000      1.0000
L=1  Nsemic=0  Cnfigmx=2
          i=1  nzeta=2  polorb=1  (2p)  (to be polarized perturbatively)
            splnorm:   0.15000
               vcte:    40.000
               rinn:  -0.90000
               qcoe:    0.0000
               qyuk:    0.0000
               qwid:   0.10000E-01
                rcs:    0.0000      0.0000
            lambdas:    1.0000      1.0000
L=2  Nsemic=0  Cnfigmx=3
          i=1  nzeta=0  polorb=0  (3d)  (perturbative polarization orbital) (from 2p)
L=0  Nkbl=1  erefs: 0.17977+309
L=1  Nkbl=1  erefs: 0.17977+309
L=2  Nkbl=1  erefs: 0.17977+309
</basis_specs>

Using PAO.SplitTailNorm
atom: Called for O                     (Z =   8)
Maximum radius (at nrval) set to   50.00000 8518

read_vps: Pseudopotential generation method:
read_vps: ONCVPSP-3.Hamann's oncvpsp
Valence charge in pseudo generation:    6.00000

read_vps: Pseudopotential includes a core correction:
read_vps: Pseudo-core for xc-correction

xc_check: Exchange-correlation functional:
xc_check: GGA Perdew, Burke & Ernzerhof 1996
Got Vlocal (oncv-fit) from psml data
Choosing vlocal chloc cutoff:  6.020499
qtot up to nchloc:    6.00001015
atom: Maximum radius for chlocal:    6.02050
atom: Maximum radius for r*vlocal+2*Zval:    6.02050
Reading KB projs from O psml data
Using scalar-relativistic projectors in PSML file

PSML: Kleinman-Bylander projectors:
   l= 0   rc=  1.372412   Ekb= 12.113471
   l= 0   rc=  1.372412   Ekb=  1.648048
   l= 1   rc=  1.474132   Ekb= -9.434259
   l= 1   rc=  1.474132   Ekb= -2.298541
   l= 2   rc=  1.277664   Ekb= -2.663910

PSML: Total number of  Kleinman-Bylander projectors:  13
atom: -------------------------------------------------------------------------

atom: SANKEY-TYPE ORBITALS:
atom: Selected multiple-zeta basis: split

[...]

SPLIT: Basis orbitals for state 2s

[...]

SPLIT: Orbitals with angular momentum L= 1

SPLIT: Basis orbitals for state 2p

SPLIT: PAO cut-off radius determined from an
SPLIT: energy shift=  0.022050 Ry
Split based on tail norm

   izeta = 1
                 lambda =    1.000000
                     rc =    3.819866
                 energy =   -0.639970
                kinetic =    4.771237
    potential(screened) =   -5.411207
       potential(ionic) =  -13.142963

   izeta = 2
                 rmatch =    2.601252
              splitnorm =    0.150000
                 energy =   -0.382093
                kinetic =    6.846164
    potential(screened) =   -7.228258
       potential(ionic) =  -15.727266

POLgen: Perturbative polarization orbital with L=  2

POLgen: Polarization orbital for state 2p
Split based on tail norm

   izeta = 1
                     rc =    3.819866
                 energy =    2.500658
                kinetic =    4.605602
    potential(screened) =   -2.104944
       potential(ionic) =   -8.455031
atom: Total number of Sankey-type orbitals: 13

atm_pop: Valence configuration (for local Pseudopot. screening):
 2s( 2.00)
 2p( 4.00)
 3d( 0.00)
Vna: chval, zval:    6.00000   6.00000

Vna:  Cut-off radius for the neutral-atom potential:   3.819866
comcore: Pseudo-core radius Rcore=  1.354557

atom: _________________________________________________________________________

prinput: Basis input

PAO.BasisType split

%block ChemicalSpeciesLabel
    1   22 Ti                      # Species index, atomic number, species label
    2    8 O                       # Species index, atomic number, species label
%endblock ChemicalSpeciesLabel

%block PAO.Basis                 # Define Basis set
# WARNING: This information might be incomplete!
[...]
siesta: Emolmec =         0.000000
siesta: Ekinion =         0.000000
siesta: Eharris =    -29904.504180
siesta: Etot    =    -30076.874433
siesta: FreeEng =    -30076.874433

SCF Convergence by DM+H criterion
max |DM_out - DM_in|         :     0.0000155788
max |H_out - H_in|      (eV) :     0.0007890598
SCF cycle converged after 32 iterations

Using DM_out to compute the final energy and forces
No. of atoms with KB's overlaping orbs in proc 0. Max # of overlaps:     144     168

siesta: E_KS(eV) =           -30197.5118

siesta: E_KS - E_eggbox =    -30197.5118

siesta: Atomic forces (eV/Ang):
   Tot    0.012335   -0.007224    0.088620
   Max    5.133234
   Res    1.568863    sqrt( Sum f_i^2 / 3N )
   Max    5.133234    constrained

Stress tensor Voigt[x,y,z,yz,xz,xy] (kbar):       43.71       14.05       74.15        0.00       -0.13        0.00
(Free)E + p*V (eV/cell)   -30218.8078
Target enthalpy (eV/cell)   -30197.5118

[...]

outcell: Cell vector modules (Ang)   :   21.340000    3.780000    9.620000
outcell: Cell angles (23,13,12) (deg):     90.0000     90.0000     90.0000
outcell: Cell volume (Ang**3)        :    775.9992
<dSpData1D:S at geom step 1
  <sparsity:sparsity for geom step 1
    nrows_g=540 nrows=540 sparsity=1.0000 nnzs=291612, refcount: 7>
  <dData1D:(new from dSpData1D) n=291612, refcount: 1>
refcount: 1>
new_DM -- step:     2
Re-using DM from previous geometries...
Number of DMs in history: 1
 DM extrapolation coefficients:
1   1.00000
New DM after history re-use:
<dSpData2D:SpM extrapolated using coords
  <sparsity:sparsity for geom step 1
    nrows_g=540 nrows=540 sparsity=1.0000 nnzs=291612, refcount: 9>
  <dData2D:(temp array for extrapolation) n=291612 m=1, refcount: 1>
refcount: 1>
No. of atoms with KB's overlaping orbs in proc 0. Max # of overlaps:     144     168

[...]

        iscf     Eharris(eV)        E_KS(eV)     FreeEng(eV)     dDmax    Ef(eV) dHmax(eV)
   scf:    1   -30195.568865   -30197.636896   -30197.636896  0.056027 -4.750329  3.534089
   scf:    2   -28945.956007   -29784.888080   -29784.979280  0.831780 -3.785632 68.407327
   scf:    3   -30200.937949   -30198.356162   -30198.356162  0.834109 -4.705476  2.365220
   scf:    4   -30198.298236   -30198.771136   -30198.771136  0.044513 -4.672898  1.614010
   scf:    5   -30198.274125   -30198.906077   -30198.906077  0.043859 -4.611986  1.171234
   scf:    6   -30199.087570   -30199.068532   -30199.068532  0.017153 -4.620466  0.102682
   scf:    7   -30199.063765   -30199.068632   -30199.068632  0.002961 -4.633554  0.100665
   scf:    8   -30199.069914   -30199.070148   -30199.070148  0.002292 -4.626667  0.019561
   scf:    9   -30199.070183   -30199.070232   -30199.070232  0.000433 -4.628087  0.015085
   scf:   10   -30199.070278   -30199.070265   -30199.070265  0.000238 -4.628315  0.006220
   scf:   11   -30199.070280   -30199.070277   -30199.070277  0.000266 -4.628002  0.005688
   scf:   12   -30199.070284   -30199.070282   -30199.070282  0.000101 -4.628458  0.003531
   scf:   13   -30199.070288   -30199.070285   -30199.070285  0.000093 -4.628397  0.001834
   scf:   14   -30199.070289   -30199.070287   -30199.070287  0.000105 -4.628537  0.001714
   scf:   15   -30199.070288   -30199.070288   -30199.070288  0.000089 -4.628431  0.001526
   scf:   16   -30199.070288   -30199.070288   -30199.070288  0.000025 -4.628547  0.000781

[...]

cgvc: Finished line minimization    1.  Mean atomic displacement =    0.1174

[...]

cgvc: Finished line minimization    8.  Mean atomic displacement =    0.0172

                        Begin CG opt. move =     20

superc: Internal auxiliary supercell:     1 x     5 x     3  =      15
superc: Number of atoms, orbitals, and projectors:    540   8100   7920

outcell: Unit cell vectors (Ang):
       21.340000    0.000000    0.000000
        0.000000    3.780000    0.000000
        0.000000    0.000000    9.620000

outcell: Cell vector modules (Ang)   :   21.340000    3.780000    9.620000
outcell: Cell angles (23,13,12) (deg):     90.0000     90.0000     90.0000
outcell: Cell volume (Ang**3)        :    775.9992
<dSpData1D:S at geom step 20
  <sparsity:sparsity for geom step 20
    nrows_g=540 nrows=540 sparsity=.9228 nnzs=269092, refcount: 7>
  <dData1D:(new from dSpData1D) n=269092, refcount: 1>
refcount: 1>
new_DM -- step:    21
Re-using DM from previous geometries...
Number of DMs in history: 1
 DM extrapolation coefficients:
1   1.00000
New DM after history re-use:
<dSpData2D:SpM extrapolated using coords
  <sparsity:sparsity for geom step 20
    nrows_g=540 nrows=540 sparsity=.9228 nnzs=269092, refcount: 9>
  <dData2D:(temp array for extrapolation) n=269092 m=1, refcount: 1>
refcount: 1>
No. of atoms with KB's overlaping orbs in proc 0. Max # of overlaps:     144     168

InitMesh: MESH = 240 x 40 x 108 = 1036800
InitMesh: Mesh cutoff (required, used) =   300.000   309.484 Ry
New grid distribution [1]: sub = 2

        iscf     Eharris(eV)        E_KS(eV)     FreeEng(eV)     dDmax    Ef(eV) dHmax(eV)
   scf:    1   -30202.131656   -30202.302914   -30202.302914  0.021593 -5.523146  0.287519
   scf:    2   -30201.540613   -30202.068411   -30202.068411  0.026908 -5.298197  1.477904
   scf:    3   -30202.347374   -30202.313763   -30202.313763  0.022280 -5.485226  0.024682
   scf:    4   -30202.314192   -30202.314035   -30202.314035  0.000458 -5.483139  0.011664
   scf:    5   -30202.314126   -30202.314090   -30202.314090  0.000281 -5.483032  0.006454
   scf:    6   -30202.314122   -30202.314108   -30202.314108  0.000099 -5.483108  0.003286
   scf:    7   -30202.314118   -30202.314114   -30202.314114  0.000085 -5.483046  0.001802
   scf:    8   -30202.314117   -30202.314116   -30202.314116  0.000042 -5.483087  0.001245
   scf:    9   -30202.314116   -30202.314116   -30202.314116  0.000022 -5.483064  0.000667

SCF Convergence by DM+H criterion
max |DM_out - DM_in|         :     0.0000219665
max |H_out - H_in|      (eV) :     0.0006669494
SCF cycle converged after 9 iterations

Using DM_out to compute the final energy and forces
No. of atoms with KB's overlaping orbs in proc 0. Max # of overlaps:     144     168

siesta: E_KS(eV) =           -30202.3141

siesta: Atomic forces (eV/Ang):
   Tot   -0.046497   -0.002833    0.004892
   Max    0.320119
   Res    0.092718    sqrt( Sum f_i^2 / 3N )
   Max    0.320119    constrained

Stress tensor Voigt[x,y,z,yz,xz,xy] (kbar):       -1.88       31.10       21.40       -0.00       -0.00       -0.01
(Free)E + p*V (eV/cell)   -30210.4864
Target enthalpy (eV/cell)   -30202.3141

outcoor: Final (unrelaxed) atomic coordinates (Ang):
    1.72900653    1.89052566    4.79431659   1       1  Ti
    1.72912190    0.00059344    7.22655541   1       2  Ti
    0.20875466    0.00057381    0.00126090   1       3  Ti
    0.20900884    1.89053797    2.39888507   1       4  Ti
   -0.00031312    1.89053204    4.20890692   2       5  O
    1.79972263    1.89041276    6.78519892   2       6  O
    1.79964914    0.00047630    5.23638720   2       7  O
   -0.00061274    0.00053739    7.81175282   2       8  O
    1.95177666    0.00049862    9.31743389   2       9  O
   -0.13997994    0.00076788    2.01298974   2      10  O
   -0.13956992    1.89066436    0.38791516   2      11  O
    1.95220051    1.89054743    2.70429050   2      12  O
    5.52581390    1.89032891    4.82269141   1      13  Ti
    5.52570420    0.00049567    7.19866120   1      14  Ti
    3.92523672    0.00055563    0.01292063   1      15  Ti
    3.92559977    1.89051272    2.38831544   1      16  Ti
    3.71821810    1.89051994    4.35215504   2      17  O
    5.58265109    1.89045354    6.79668573   2      18  O
    5.58302693    0.00038286    5.22436448   2      19  O
    3.71801373    0.00053137    7.66892544   2      20  O
    5.73402600    0.00047888    9.16337601   2      21  O
    3.86922778    0.00043986    1.98671936   2      22  O
    3.86930371    1.89059068    0.41430158   2      23  O
    5.73419204    1.89045248    2.85789067   2      24  O
    9.24281912    1.89041523    4.81016527   1      25  Ti
    9.24241050    0.00051021    7.20941907   1      26  Ti
    7.72256738    0.00049822   -0.01553944   1      27  Ti
    7.72276606    1.89033721    2.41583245   1      28  Ti
    7.50028043    1.89048604    4.50670516   2      29  O
    9.59054343    1.89028139    6.82254991   2      30  O
    9.59110154    0.00060039    5.19707879   2      31  O
    7.49984338    0.00052165    7.51353371   2      32  O
    9.45272030    0.00043042    9.01868079   2      33  O
    7.65271427    0.00035062    1.97465561   2      34  O
    7.65287327    1.89034780    0.42626562   2      35  O
    9.45273425    1.89037329    3.00103721   2      36  O

coxmol: Writing XMOL coordinates into file SurRel.xyz

siesta: Program's energy decomposition (eV):
siesta: Ebs     =     -6656.561041
siesta: Eions   =     44643.213711
siesta: Ena     =      6164.064227
siesta: Ekin    =     14819.806648
siesta: Enl     =     -1450.666327
siesta: Eso     =         0.000000
siesta: Edftu   =         0.000000
siesta: DEna    =       463.279403
siesta: DUscf   =        23.045917
siesta: DUext   =         0.000000
siesta: Ex      =     -5215.327342
siesta: Ec      =      -363.302932
siesta: Exc     =     -5578.630274
siesta: EbV     =         0.000000
siesta: eta*DQ  =         0.000000
siesta: Emadel  =         0.000000
siesta: Emeta   =         0.000000
siesta: Emolmec =         0.000000
siesta: Ekinion =         0.000000
siesta: Eharris =    -30202.314116
siesta: Etot    =    -30202.314116
siesta: FreeEng =    -30202.314116

siesta: Final energy (eV):
siesta:  Band Struct. =   -6656.561041
siesta:       Kinetic =   14819.806648
siesta:       Hartree =   90819.707884
siesta:         Edftu =       0.000000
siesta:       Eso     =       0.000000
siesta:    Ext. field =       0.000000
siesta:         Exch. =   -5215.327342
siesta:         Corr. =    -363.302932
siesta:     Bulk bias =       0.000000
siesta:   Exch.-corr. =   -5578.630274
siesta:  Ion-electron = -196883.286219
siesta:       Ion-ion =   66620.087844
siesta:       Ekinion =       0.000000
siesta: D3 dispersion =       0.000000
siesta:         Total =  -30202.314116
siesta:         Fermi =      -5.483064

siesta: Atomic forces (eV/Ang):
siesta:      1   -0.160959   -0.000184   -0.000955
siesta:      2   -0.158027    0.000112    0.000188
siesta:      3   -0.257059    0.000052    0.013474
siesta:      4   -0.250902    0.000445    0.007754
siesta:      5    0.055662    0.000073    0.036476
siesta:      6    0.004041    0.000505    0.021237
siesta:      7    0.003519    0.000233   -0.022626
siesta:      8    0.051364   -0.000125   -0.044851
siesta:      9    0.291466    0.000225    0.012544
siesta:     10    0.020014   -0.001132   -0.024965
siesta:     11    0.017565    0.001723    0.023109
siesta:     12    0.281627   -0.000201   -0.015319
siesta:     13   -0.030740    0.000641    0.009695
siesta:     14   -0.033739   -0.000630   -0.012693
siesta:     15    0.058774    0.000815    0.012661
siesta:     16    0.059860   -0.000418   -0.014073
siesta:     17    0.162341   -0.000331   -0.011355
siesta:     18   -0.020102    0.000057   -0.005451
siesta:     19   -0.020013    0.001311    0.007022
siesta:     20    0.156392   -0.000207    0.012250
siesta:     21   -0.188457   -0.000088   -0.021958
siesta:     22    0.014261    0.001670   -0.005887
siesta:     23    0.013545   -0.002126    0.005947
siesta:     24   -0.192091   -0.000357    0.013154
siesta:     25    0.277854    0.001168    0.035235
siesta:     26    0.279848   -0.001633   -0.029276
siesta:     27    0.173736    0.000040   -0.004490
siesta:     28    0.163321    0.000322    0.007098
siesta:     29   -0.320119   -0.000452    0.007074
siesta:     30   -0.016066    0.003621   -0.022164
siesta:     31   -0.016701   -0.004663    0.029097
siesta:     32   -0.317454   -0.000246    0.000665
siesta:     33   -0.069303   -0.000215    0.051840
siesta:     34   -0.008573   -0.001235    0.023054
siesta:     35   -0.008472   -0.001471   -0.026703
siesta:     36   -0.062911   -0.000131   -0.061917
siesta: ----------------------------------------
siesta:    Tot   -0.046497   -0.002833    0.004892

siesta: Stress tensor (static) (eV/Ang**3):
siesta:    -0.001174   -0.000003   -0.000001
siesta:    -0.000003    0.019414   -0.000001
siesta:    -0.000001   -0.000001    0.013354

siesta: Cell volume =        775.999224 Ang**3

siesta: Pressure (static):
siesta:                Solid            Molecule  Units
siesta:          -0.00011470         -0.00011916  Ry/Bohr**3
siesta:          -0.01053130         -0.01094061  eV/Ang**3
siesta:         -16.87300251        -17.52879755  kBar
(Free)E+ p_basis*V_orbitals  =      -30190.171084
(Free)Eharris+ p_basis*V_orbitals  =      -30190.171084

siesta: Electric dipole (a.u.)  =   -0.011334   -0.000000   -0.000000
siesta: Electric dipole (Debye) =   -0.028808   -0.000000   -0.000000

cite: Please indicate the Siesta version in published work: 5.2.2
cite: This calculation has made use of features in the following articles
cite: which we encourage you to cite in published work.
cite: (Please see "SurRel.bib" for a BibTeX file.)
        Primary SIESTA paper
          DOI: www.doi.org/10.1088/0953-8984/14/11/302
        PSML pseudopotential format
          DOI: www.doi.org/10.1016/j.cpc.2018.02.011

Routine            Calls   Time/call    Tot.time        %
siesta                 1    6034.303    6034.303   100.00
Setup                  1       0.249       0.249     0.00
bands                  1       0.000       0.000     0.00
KSV_init               1       0.000       0.000     0.00
IterGeom              21     287.335    6034.026   100.00
geom_init             21       8.370     175.770     2.91
state_init            21       0.344       7.220     0.12
hsparse               21       0.118       2.488     0.04
overlap               21       0.178       3.730     0.06
Setup_H0              21       5.177     108.721     1.80
naefs                 42       0.001       0.034     0.00
dnaefs                42       0.001       0.022     0.00
MolMec                42       0.000       0.000     0.00
kinefsm               42       0.126       5.311     0.09
nlefsm                42       0.392      16.471     0.27
DHSCF_Init            21       4.539      95.317     1.58
DHSCF1                21       0.060       1.255     0.02
InitMesh              21       0.060       1.250     0.02
INITMESH              21       0.000       0.000     0.00
DHSCF2                21       4.479      94.059     1.56
REMESH                21       0.698      14.649     0.24
REORD                925       0.002       2.064     0.03
PHION                 21       3.167      66.498     1.10
COMM_BSC            1283       0.002       2.529     0.04
POISON               326       0.089      28.913     0.48
fft                  652       0.034      22.460     0.37
setup_H              284       2.775     788.017    13.06
DHSCF                305       3.381    1031.057    17.09
DHSCF3               305       2.770     844.740    14.00
rhoofd               305       1.101     335.939     5.57
XC                   305       0.796     242.830     4.02
GXC-CellXC           305       0.788     240.403     3.98
gridxc@cellXC        305       0.788     240.400     3.98
vmat                 305       0.755     230.409     3.82
IterSCF              263      21.308    5604.079    92.87
compute_dm           263      18.531    4873.655    80.77
diagon               263      18.529    4873.184    80.76
c-eigval            5786       0.214    1239.717    20.54
c-buildHS           5786       0.006      37.415     0.62
cdiag              11572       0.345    3995.460    66.21
cdiag1             11572       0.026     296.590     4.92
cdiag2             11572       0.081     939.097    15.56
cdiag3             11572       0.223    2586.192    42.86
c-eigvec            5786       0.489    2827.167    46.85
cdiag4              5786       0.029     164.960     2.73
c-buildD            5786       0.139     805.113    13.34
MIXER                242       0.005       1.093     0.02
PostSCF               21      12.098     254.051     4.21
FINAL_HF              21      12.098     254.049     4.21
DHSCF4                21       8.872     186.315     3.09
dfscf                 21       8.324     174.800     2.90
overfsm               21       0.082       1.727     0.03
writeHSX              21       0.003       0.062     0.00
state_analysis        21       0.001       0.019     0.00
siesta_move           21       0.004       0.080     0.00
Analysis               1       0.024       0.024     0.00
optical                1       0.000       0.000     0.00

>> End of run:  25-JUN-2025  22:53:22
Job completed
Job completed