 NOTE: Siesta V5 introduces some new defaults for basis-set generation
 NOTE: which might lead to slightly different numerical results.
 NOTE: Please see the manual for full details and compatibility measures.

reinit: Reading from file optimization.fdf

reinit: -----------------------------------------------------------------------
reinit: System Name:
reinit: -----------------------------------------------------------------------
reinit: System Label: AuRel
reinit: -----------------------------------------------------------------------

initatom: Reading input for the pseudopotentials and atomic orbitals ----------
Species number:   1 Atomic number:   79 Label: Au

Ground state valence configuration (from tables):   6s01  6p00  5d10  5f00

---- Processing specs for species: Au
Reading pseudopotential information in PSML from:
  Au.psml
PSML file version: 1.1
GGA--PBE XC_GGA_X_PBE--XC_GGA_C_PBE pb
PSML uuid: fa497b30-be45-11e7-41fb-494093d7a025
Semicore shell(s) with  8 electrons included in the valence for Au

---- Pseudopotential check for Au

Pseudized shells:
5s( 2.00) rc: 1.46
5p( 6.00) rc: 1.56
5d(10.00) rc: 1.56
5f( 0.00) rc: 1.60
Valence configuration for ps generation: 5s:5p:5d:6s: Total charge:  19.000000
Semicore shell(s): 5s 5p
Fallback to non-perturbative polarization scheme for Au
Please see the manual if this is not desired in principle
For Au, standard SIESTA heuristics set lmxkb to 3
 (one more than the basis l, including polarization orbitals).
Use PS.lmax or PS.KBprojectors blocks to override.

<basis_specs>
Au                   Z=  79    Mass=  196.97        Charge= 0.17977+309
Lmxo=2 Lmxkb= 3    BasisType=split      Semic=T
L=0  Nsemic=1  Cnfigmx=6
          i=1  nzeta=1  polorb=0  (5s)  (semicore shell)
            splnorm:   0.15000
               vcte:    40.000
               rinn:  -0.90000
               qcoe:    0.0000
               qyuk:    0.0000
               qwid:   0.10000E-01
                rcs:    0.0000
            lambdas:    1.0000
          i=2  nzeta=2  polorb=0  (6s)  (to be polarized non-perturbatively)
            splnorm:   0.15000
               vcte:    40.000
               rinn:  -0.90000
               qcoe:    0.0000
               qyuk:    0.0000
               qwid:   0.10000E-01
                rcs:    0.0000      0.0000
            lambdas:    1.0000      1.0000
L=1  Nsemic=1  Cnfigmx=6
          i=1  nzeta=1  polorb=0  (5p)  (semicore shell)
            splnorm:   0.15000
               vcte:    40.000
               rinn:  -0.90000
               qcoe:    0.0000
               qyuk:    0.0000
               qwid:   0.10000E-01
                rcs:    0.0000
            lambdas:    1.0000
          i=2  nzeta=1  polorb=0  (6p)  (non-perturbative polarization shell)
            splnorm:   0.15000
               vcte:    40.000
               rinn:  -0.90000
               qcoe:    0.0000
               qyuk:   0.49407-323
               qwid:   0.44466-322
                rcs:    0.0000
            lambdas:    1.0000
L=2  Nsemic=0  Cnfigmx=5
          i=1  nzeta=2  polorb=0  (5d)
            splnorm:   0.15000
               vcte:    40.000
               rinn:  -0.90000
               qcoe:    0.0000
               qyuk:    0.0000
               qwid:   0.10000E-01
                rcs:    0.0000      0.0000
            lambdas:    1.0000      1.0000
L=0  Nkbl=2  erefs: 0.17977+309 0.17977+309
L=1  Nkbl=2  erefs: 0.17977+309 0.17977+309
L=2  Nkbl=1  erefs: 0.17977+309
L=3  Nkbl=1  erefs: 0.17977+309
</basis_specs>

Using PAO.SplitTailNorm
atom: Called for Au                    (Z =  79)
Maximum radius (at nrval) set to   50.00000 8518

read_vps: Pseudopotential generation method:
read_vps: ONCVPSP-3.Hamann's oncvpsp
Valence charge in pseudo generation:   19.00000

read_vps: Pseudopotential includes a core correction:
read_vps: Pseudo-core for xc-correction

xc_check: Exchange-correlation functional:
xc_check: GGA Perdew, Burke & Ernzerhof 1996
Got Vlocal (oncv-fit) from psml data
Choosing vlocal chloc cutoff:  5.037181
qtot up to nchloc:   18.99999407
atom: Maximum radius for chlocal:    5.03718
atom: Maximum radius for r*vlocal+2*Zval:    5.03718
Reading KB projs from Au psml data
Using scalar-relativistic projectors in PSML file

PSML: Kleinman-Bylander projectors:
   l= 0   rc=  1.474132   Ekb= 18.815768
   l= 0   rc=  1.474132   Ekb= -0.390506
   l= 1   rc=  1.583336   Ekb=  4.781134
   l= 1   rc=  1.583336   Ekb= -3.699696
   l= 2   rc=  1.583336   Ekb=  2.968821
   l= 2   rc=  1.583336   Ekb=  0.574456
   l= 3   rc=  1.622038   Ekb=  2.312314

PSML: Total number of  Kleinman-Bylander projectors:  25
atom: -------------------------------------------------------------------------

atom: SANKEY-TYPE ORBITALS:
atom: Selected multiple-zeta basis: split

SPLIT: Orbitals with angular momentum L= 0

SPLIT: Basis orbitals for state 5s

SPLIT: PAO cut-off radius determined from an
SPLIT: energy shift=  0.000735 Ry
Split based on tail norm

   izeta = 1
                 lambda =    1.000000
                     rc =    2.925359
                 energy =   -7.964134
                kinetic =    2.893592
    potential(screened) =  -10.857725
       potential(ionic) =  -37.457701

SPLIT: Basis orbitals for state 6s

[...]

   izeta = 2
                 rmatch =    4.927355
              splitnorm =    0.150000
                 energy =   -0.413505
                kinetic =    2.478661
    potential(screened) =   -2.892166
       potential(ionic) =  -20.911581

[...]

SPLIT: Basis orbitals for state 5p

[...]

SPLIT: Basis orbitals for state 6p
SPLIT: Non-perturbative polarization orbs for state 6s
SPLIT: rc(1st zeta) (re)set to: 8.0332 (expansion factor: 1.0000)
Split based on tail norm

[...]

SPLIT: Orbitals with angular momentum L= 2

SPLIT: Basis orbitals for state 5d

SPLIT: PAO cut-off radius determined from an
SPLIT: energy shift=  0.000735 Ry
Split based on tail norm

   izeta = 1
                 lambda =    1.000000
                     rc =    6.393405
                 energy =   -0.504592
                kinetic =    4.935315
    potential(screened) =   -5.439906
       potential(ionic) =  -26.571989

   izeta = 2
                 rmatch =    3.462344
              splitnorm =    0.150000
                 energy =   -0.397189
                kinetic =    6.101362
    potential(screened) =   -6.498551
       potential(ionic) =  -29.253309
atom: Total number of Sankey-type orbitals: 19

atm_pop: Valence configuration (for local Pseudopot. screening):
 5s( 2.00) 6s( 1.00)
 5p( 6.00) 6p( 0.00)
 5d(10.00)
Vna: chval, zval:   19.00000  19.00000

Vna:  Cut-off radius for the neutral-atom potential:   8.033223
comcore: Pseudo-core radius Rcore=  2.583037

atom: _________________________________________________________________________

prinput: Basis input

PAO.BasisType split

%block ChemicalSpeciesLabel
    1   79 Au                      # Species index, atomic number, species label
%endblock ChemicalSpeciesLabel

%block PAO.Basis                 # Define Basis set
# WARNING: This information might be incomplete!
Au                    5                    # Species label, number of l-shells
 n=5   0   1                         # n, l, Nzeta
   2.925
   1.000
 n=6   0   2                         # n, l, Nzeta
   8.033      4.927
   1.000      1.000
 n=5   1   1                         # n, l, Nzeta
   3.518
   1.000
 n=6   1   1                         # n, l, Nzeta
   8.033
   1.000
 n=5   2   2                         # n, l, Nzeta
   6.393      3.462
   1.000      1.000
%endblock PAO.Basis

prinput: ----------------------------------------------------------------------

Dumping basis to NetCDF file Au.ion.nc
coor:   Atomic-coordinates input format  =     Cartesian coordinates
coor:                                          (in Angstroms)

siesta: Atomic coordinates (Bohr) and species
siesta:      0.00000   0.00000   0.00000  1        1
siesta:      0.00000   3.94129   3.94129  1        2
siesta:      3.94129   0.00000   3.94129  1        3
siesta:      3.94129   3.94129   0.00000  1        4
siesta:      7.88260   7.88260   7.88260  1        5
siesta:      7.88260   0.00000   0.00000  1        6
siesta:      0.00000   7.88260   0.00000  1        7
siesta:      0.00000   0.00000   7.88260  1        8

siesta: System type = molecule

initatomlists: Number of atoms, orbitals, and projectors:      8   152   200

coxmol: Writing XMOL coordinates into file AuRel.xyz

siesta: ******************** Simulation parameters ****************************
siesta:
siesta: The following are some of the parameters of the simulation.
siesta: A complete list of the parameters used, including default values,
siesta: can be found in file out.fdf
siesta:
redata: Spin configuration                          = none
redata: Number of spin components                   = 1
redata: Time-Reversal Symmetry                      = T
redata: Spin spiral                                 = F
redata: Long output                                 =   F
redata: Number of Atomic Species                    =        1
redata: Charge density info will appear in .RHO file
redata: Write Mulliken charges (when)               = none
redata: Write Mulliken Pop.                         = NO
redata: Write Hirshfeld charges (when)              = none
redata: Write Voronoi charges (when)                = none
redata: Write spin charge (when)                    = none
redata: Matel table size (NRTAB)                    =     1024
redata: Mesh Cutoff                                 =   300.0000 Ry
redata: Net charge of the system                    =     0.0000 |e|
redata: Min. number of SCF Iter                     =        0
redata: Max. number of SCF Iter                     =     1000
redata: SCF convergence failure will abort job
redata: SCF mix quantity                            = Hamiltonian
redata: Mix DM or H after convergence               =   F
redata: Recompute H after scf cycle                 =   F
redata: Mix DM in first SCF step                    =   T
redata: Write Pulay info on disk                    =   F
redata: New DM Occupancy tolerance                  = 0.000000000001
redata: No kicks to SCF
redata: DM Mixing Weight for Kicks                  =     0.5000
redata: Require Harris convergence for SCF          =   F
redata: Harris energy tolerance for SCF             =     0.000100 eV
redata: Require DM convergence for SCF              =   T
redata: DM tolerance for SCF                        =     0.000100
redata: Require EDM convergence for SCF             =   F
redata: EDM tolerance for SCF                       =     0.001000 eV
redata: Require H convergence for SCF               =   T
redata: Hamiltonian tolerance for SCF               =     0.001000 eV
redata: Require (free) Energy convergence for SCF   =   F
redata: (free) Energy tolerance for SCF             =     0.000100 eV
redata: Using DFT-D3 dispersion                     =   F
redata: Using Saved Data (generic)                  =   F
redata: Use continuation files for DM               =   T
redata: Neglect nonoverlap interactions             =   F
[...]
refcount: 1>
new_DM -- step:     1
Initializing Density Matrix...

Attempting to read DM from file... Failed...
DM filled with atomic data:
<dSpData2D:DM initialized from atoms
  <sparsity:sparsity for geom step 0
    nrows_g=152 nrows=152 sparsity=.7932 nnzs=18326, refcount: 8>
  <dData2D:DM n=18326 m=1, refcount: 1>
refcount: 1>
No. of atoms with KB's overlaping orbs in proc 0. Max # of overlaps:       8      77

InitMesh: MESH = 216 x 216 x 216 = 10077696
InitMesh: Mesh cutoff (required, used) =   300.000   322.366 Ry
New grid distribution [1]: sub = 2

stepf: Fermi-Dirac step function

siesta: Program's energy decomposition (eV):
siesta: Ebs     =     -5975.082887
siesta: Eions   =     40622.498726
siesta: Ena     =      4100.598230
siesta: Ekin    =      8995.793731
siesta: Enl     =       537.979432
siesta: Eso     =         0.000000
siesta: Edftu   =         0.000000
siesta: DEna    =       329.141364
siesta: DUscf   =        19.484101
siesta: DUext   =         0.000000
siesta: Ex      =     -5275.863107
siesta: Ec      =      -317.589738
siesta: Exc     =     -5593.452844
siesta: EbV     =         0.000000
siesta: eta*DQ  =         0.000000
siesta: Emadel  =         0.000000
siesta: Emeta   =         0.000000
siesta: Emolmec =         0.000000
siesta: Ekinion =         0.000000
siesta: Eharris =    -32214.611610
siesta: Etot    =    -32232.954713
siesta: FreeEng =    -32232.954717

SCF Convergence by DM+H criterion
max |DM_out - DM_in|         :     0.0000768775
max |H_out - H_in|      (eV) :     0.0003060207
SCF cycle converged after 22 iterations

Using DM_out to compute the final energy and forces
No. of atoms with KB's overlaping orbs in proc 0. Max # of overlaps:       8      77

siesta: E_KS(eV) =           -32244.5218

siesta: E_KS - E_eggbox =    -32244.5218

siesta: Atomic forces (eV/Ang):
   Tot    0.001973    0.001973    0.001974
   Max    1.344705
   Res    0.686951    sqrt( Sum f_i^2 / 3N )
   Max    1.344705    constrained

Stress tensor Voigt[x,y,z,yz,xz,xy] (kbar):        1.63        1.63        1.63       -0.45       -0.45       -0.45
(Free)E + p*V (eV/cell)   -32252.6523
Target enthalpy (eV/cell)   -32244.5294

[...]

outcell: Cell vector modules (Ang)   :   20.000000   20.000000   20.000000
outcell: Cell angles (23,13,12) (deg):     90.0000     90.0000     90.0000
outcell: Cell volume (Ang**3)        :   8000.0000
<dSpData1D:S at geom step 1
  <sparsity:sparsity for geom step 1
    nrows_g=152 nrows=152 sparsity=.7937 nnzs=18338, refcount: 7>
  <dData1D:(new from dSpData1D) n=18338, refcount: 1>
refcount: 1>
new_DM -- step:     2
Re-using DM from previous geometries...
Number of DMs in history: 1
 DM extrapolation coefficients:
1   1.00000
New DM after history re-use:
<dSpData2D:SpM extrapolated using coords
  <sparsity:sparsity for geom step 1
    nrows_g=152 nrows=152 sparsity=.7937 nnzs=18338, refcount: 9>
  <dData2D:(temp array for extrapolation) n=18338 m=1, refcount: 1>
refcount: 1>
No. of atoms with KB's overlaping orbs in proc 0. Max # of overlaps:       8      77

[...]

        iscf     Eharris(eV)        E_KS(eV)     FreeEng(eV)     dDmax    Ef(eV) dHmax(eV)
   scf:    1   -32245.196384   -32244.696037   -32244.701634  0.533860 -5.002308  1.920379
   scf:    2   -32226.243405   -32239.140901   -32239.140918  3.239936 -4.526845 11.839870
   scf:    3   -32246.283154   -32243.368904   -32243.372153  1.195760 -4.934249  5.224036
   scf:    4   -32229.621062   -32241.198811   -32241.198811  3.791686 -5.203808  9.298895
   scf:    5   -32244.280109   -32242.856125   -32242.856763  0.722281 -5.031243  6.203019
   scf:    6   -32224.197388   -32239.871023   -32239.871023  4.515916 -4.650416 10.800216
   scf:    7   -32243.635493   -32241.878857   -32241.879351  0.748342 -4.891496  7.512953
   scf:    8   -32225.428854   -32240.527991   -32240.527991  4.348884 -5.061122 11.140801
   scf:    9   -32242.644778   -32241.630378   -32241.630379  0.345090 -5.124963  8.195898
   scf:   10   -31202.833414   -31910.338722   -31910.500924  4.915077 -2.948924108.947333
   scf:   11   -32253.059770   -32244.705789   -32244.711541  2.831069 -5.134366  2.341985
   scf:   12   -32243.508282   -32244.318846   -32244.323152  0.759353 -5.054436  4.096117
   scf:   13   -32240.750430   -32243.911589   -32243.916038  2.137871 -4.993771  3.448250
   scf:   14   -32244.302074   -32244.802307   -32244.808514  1.538249 -4.995045  1.352006
   scf:   15   -32244.876077   -32244.849087   -32244.855596  0.171007 -4.980188  0.568946
   scf:   16   -32244.858715   -32244.854542   -32244.861131  0.028099 -4.969923  0.275419
   scf:   17   -32244.797860   -32244.841993   -32244.848741  0.222440 -4.959791  0.604485
   scf:   18   -32244.855023   -32244.857514   -32244.864165  0.169919 -4.966926  0.051407
   scf:   19   -32244.857681   -32244.857631   -32244.864294  0.010042 -4.966463  0.014099
   scf:   20   -32244.857639   -32244.857640   -32244.864306  0.003735 -4.966357  0.002137
   scf:   21   -32244.857640   -32244.857640   -32244.864307  0.000133 -4.966391  0.001479
   scf:   22   -32244.857610   -32244.857630   -32244.864299  0.004203 -4.966376  0.012358
   scf:   23   -32244.857641   -32244.857640   -32244.864307  0.004068 -4.966417  0.001136
   scf:   24   -32244.857641   -32244.857641   -32244.864307  0.000147 -4.966431  0.000777
   scf:   25   -32244.857642   -32244.857642   -32244.864307  0.000224 -4.966462  0.000182
   scf:   26   -32244.857642   -32244.857642   -32244.864307  0.000122 -4.966469  0.000229
   scf:   27   -32244.857642   -32244.857642   -32244.864307  0.000125 -4.966469  0.000147
   scf:   28   -32244.857642   -32244.857642   -32244.864307  0.000022 -4.966472  0.000077

[...]

cgvc: Finished line minimization    1.  Mean atomic displacement =    0.1751

[...]

cgvc: Finished line minimization    3.  Mean atomic displacement =    0.0443

[...]

                        Begin CG opt. move =     15

outcell: Unit cell vectors (Ang):
       20.000000    0.000000    0.000000
        0.000000   20.000000    0.000000
        0.000000    0.000000   20.000000

outcell: Cell vector modules (Ang)   :   20.000000   20.000000   20.000000
outcell: Cell angles (23,13,12) (deg):     90.0000     90.0000     90.0000
outcell: Cell volume (Ang**3)        :   8000.0000
<dSpData1D:S at geom step 15
  <sparsity:sparsity for geom step 15
    nrows_g=152 nrows=152 sparsity=.8534 nnzs=19718, refcount: 7>
  <dData1D:(new from dSpData1D) n=19718, refcount: 1>
refcount: 1>
new_DM -- step:    16
Re-using DM from previous geometries...
Number of DMs in history: 1
 DM extrapolation coefficients:
1   1.00000
New DM after history re-use:
<dSpData2D:SpM extrapolated using coords
  <sparsity:sparsity for geom step 15
    nrows_g=152 nrows=152 sparsity=.8534 nnzs=19718, refcount: 9>
  <dData2D:(temp array for extrapolation) n=19718 m=1, refcount: 1>
refcount: 1>
No. of atoms with KB's overlaping orbs in proc 0. Max # of overlaps:       8      88

InitMesh: MESH = 216 x 216 x 216 = 10077696
InitMesh: Mesh cutoff (required, used) =   300.000   322.366 Ry
New grid distribution [1]: sub = 2

        iscf     Eharris(eV)        E_KS(eV)     FreeEng(eV)     dDmax    Ef(eV) dHmax(eV)
   scf:    1   -32246.944660   -32246.129275   -32246.129281  0.520682 -4.725422  1.711511
   scf:    2   -32234.857654   -32242.743945   -32242.743945  2.455798 -4.906832  8.842793
   scf:    3   -32247.429949   -32246.214144   -32246.214147  1.640467 -4.769062  1.239296
   scf:    4   -32245.982289   -32246.221106   -32246.221111  0.650815 -4.730039  1.143493
   scf:    5   -32246.291079   -32246.286004   -32246.286008  0.317792 -4.747457  0.017341
   scf:    6   -32246.286011   -32246.286024   -32246.286028  0.008065 -4.746423  0.015858
   scf:    7   -32246.286037   -32246.286034   -32246.286038  0.003330 -4.746509  0.004281
   scf:    8   -32246.286036   -32246.286036   -32246.286040  0.002052 -4.746362  0.005984
   scf:    9   -32246.286037   -32246.286038   -32246.286042  0.001579 -4.746433  0.001876
   scf:   10   -32246.286038   -32246.286038   -32246.286042  0.000986 -4.746407  0.002796
   scf:   11   -32246.286039   -32246.286039   -32246.286042  0.000580 -4.746437  0.001171
   scf:   12   -32246.286039   -32246.286039   -32246.286043  0.000420 -4.746446  0.001523
   scf:   13   -32246.286039   -32246.286039   -32246.286043  0.000488 -4.746475  0.000782
   scf:   14   -32246.286039   -32246.286039   -32246.286043  0.000390 -4.746477  0.000824
   scf:   15   -32246.286039   -32246.286039   -32246.286043  0.000139 -4.746491  0.000421
   scf:   16   -32246.286039   -32246.286039   -32246.286043  0.000105 -4.746502  0.000463
   scf:   17   -32246.286039   -32246.286039   -32246.286043  0.000219 -4.746517  0.000573
   scf:   18   -32246.286039   -32246.286039   -32246.286043  0.000169 -4.746514  0.000218
   scf:   19   -32246.286039   -32246.286039   -32246.286043  0.000033 -4.746520  0.000137

SCF Convergence by DM+H criterion
max |DM_out - DM_in|         :     0.0000329357
max |H_out - H_in|      (eV) :     0.0001370406
SCF cycle converged after 19 iterations

Using DM_out to compute the final energy and forces
No. of atoms with KB's overlaping orbs in proc 0. Max # of overlaps:       8      88

siesta: E_KS(eV) =           -32246.2860

siesta: Atomic forces (eV/Ang):
   Tot    0.000108    0.000109    0.000109
   Max    0.703128
   Res    0.374246    sqrt( Sum f_i^2 / 3N )
   Max    0.703128    constrained

Stress tensor Voigt[x,y,z,yz,xz,xy] (kbar):        0.78        0.78        0.78       -0.06       -0.06       -0.06
(Free)E + p*V (eV/cell)   -32250.1719
Target enthalpy (eV/cell)   -32246.2860

outcoor: Final (unrelaxed) atomic coordinates (Ang):
    0.24518663    0.24518688    0.24518659   1       1  Au
    0.02352003    2.19514156    2.19513947   1       2  Au
    2.19514155    0.02352089    2.19514046   1       3  Au
    2.19514061    2.19514053    0.02352204   1       4  Au
    3.51345913    3.51345925    3.51345916   1       5  Au
    3.99117333    0.17582829    0.17582878   1       6  Au
    0.17582839    3.99117314    0.17582840   1       7  Au
    0.17582787    0.17582821    3.99117454   1       8  Au

coxmol: Writing XMOL coordinates into file AuRel.xyz

siesta: Program's energy decomposition (eV):
siesta: Ebs     =     -5322.471149
siesta: Eions   =     40622.498726
siesta: Ena     =      4096.273024
siesta: Ekin    =      9267.618627
siesta: Enl     =       545.714648
siesta: Eso     =         0.000000
siesta: Edftu   =         0.000000
siesta: DEna    =       120.778645
siesta: DUscf   =         2.860604
siesta: DUext   =         0.000000
siesta: Ex      =     -5336.244859
siesta: Ec      =      -320.788002
siesta: Exc     =     -5657.032860
siesta: EbV     =         0.000000
siesta: eta*DQ  =         0.000000
siesta: Emadel  =         0.000000
siesta: Emeta   =         0.000000
siesta: Emolmec =         0.000000
siesta: Ekinion =         0.000000
siesta: Eharris =    -32246.286039
siesta: Etot    =    -32246.286039
siesta: FreeEng =    -32246.286043

siesta: Final energy (eV):
siesta:  Band Struct. =   -5322.471149
siesta:       Kinetic =    9267.618627
siesta:       Hartree =   42999.419097
siesta:         Edftu =       0.000000
siesta:       Eso     =       0.000000
siesta:    Ext. field =       0.000000
siesta:         Exch. =   -5336.244859
siesta:         Corr. =    -320.788002
siesta:     Bulk bias =       0.000000
siesta:   Exch.-corr. =   -5657.032860
siesta:  Ion-electron =  -96539.662405
siesta:       Ion-ion =   17683.371502
siesta:       Ekinion =       0.000000
siesta: D3 dispersion =       0.000000
siesta:         Total =  -32246.286039
siesta:         Fermi =      -4.746520

siesta: Atomic forces (eV/Ang):
siesta:      1   -0.046616   -0.046618   -0.046615
siesta:      2    0.703127   -0.077613   -0.077583
siesta:      3   -0.077611    0.703128   -0.077588
siesta:      4   -0.077595   -0.077596    0.703126
siesta:      5   -0.572967   -0.572968   -0.572968
siesta:      6   -0.409564    0.240664    0.240661
siesta:      7    0.240663   -0.409562    0.240659
siesta:      8    0.240671    0.240672   -0.409583
siesta: ----------------------------------------
siesta:    Tot    0.000108    0.000109    0.000109

siesta: Stress tensor (static) (eV/Ang**3):
siesta:     0.000486   -0.000035   -0.000035
siesta:    -0.000035    0.000486   -0.000035
siesta:    -0.000035   -0.000035    0.000486

siesta: Cell volume =       8000.000000 Ang**3

siesta: Pressure (static):
siesta:                Solid            Molecule  Units
siesta:          -0.00000529          0.00000002  Ry/Bohr**3
siesta:          -0.00048573          0.00000163  eV/Ang**3
siesta:          -0.77822356          0.00261079  kBar
(Free)E+ p_basis*V_orbitals  =      -32236.815223
(Free)Eharris+ p_basis*V_orbitals  =      -32236.815223

siesta: Electric dipole (a.u.)  =   -0.407810   -0.407810   -0.407813
siesta: Electric dipole (Debye) =   -1.036550   -1.036550   -1.036557

cite: Please indicate the Siesta version in published work: 5.2.2
cite: This calculation has made use of features in the following articles
cite: which we encourage you to cite in published work.
cite: (Please see "AuRel.bib" for a BibTeX file.)
        Primary SIESTA paper
          DOI: www.doi.org/10.1088/0953-8984/14/11/302
        PSML pseudopotential format
          DOI: www.doi.org/10.1016/j.cpc.2018.02.011

Routine            Calls   Time/call    Tot.time        %
siesta                 1    2061.435    2061.435   100.00
Setup                  1       0.157       0.157     0.01
bands                  1       0.000       0.000     0.00
KSV_init               1       0.000       0.000     0.00
IterGeom              16     128.829    2061.259    99.99
geom_init             16      11.493     183.885     8.92
state_init            16       0.043       0.688     0.03
hsparse               16       0.002       0.026     0.00
overlap               16       0.038       0.614     0.03
Setup_H0              16       5.985      95.753     4.64
naefs                 32       0.000       0.003     0.00
dnaefs                32       0.000       0.001     0.00
MolMec                32       0.000       0.000     0.00
kinefsm               32       0.027       0.879     0.04
nlefsm                32       0.099       3.166     0.15
DHSCF_Init            16       5.778      92.445     4.48
DHSCF1                16       0.169       2.707     0.13
InitMesh              16       0.169       2.706     0.13
INITMESH              16       0.000       0.000     0.00
DHSCF2                16       5.609      89.738     4.35
REMESH                16       0.332       5.316     0.26
REORD                914       0.032      29.085     1.41
PHION                 16       3.097      49.553     2.40
COMM_BSC            1396       0.026      35.646     1.73
POISON               353       1.520     536.516    26.03
fft                  706       0.622     439.078    21.30
setup_H              321       5.602    1798.401    87.24
DHSCF                337       5.803    1955.521    94.86
DHSCF3               337       5.596    1885.773    91.48
rhoofd               337       0.712     240.021    11.64
XC                   337       2.451     825.835    40.06
GXC-CellXC           337       2.345     790.106    38.33
gridxc@cellXC        337       2.345     790.099    38.33
vmat                 337       0.476     160.558     7.79
IterSCF              305       5.635    1718.631    83.37
compute_dm           305       0.024       7.292     0.35
diagon               305       0.024       7.250     0.35
r-eigvec             305       0.013       3.944     0.19
r-buildHS            305       0.000       0.052     0.00
rdiag                305       0.013       3.890     0.19
rdiag1               305       0.000       0.133     0.01
rdiag2               305       0.001       0.409     0.02
rdiag3               305       0.008       2.384     0.12
rdiag4               305       0.003       0.931     0.05
r-buildD             305       0.011       3.243     0.16
MIXER                289       0.000       0.091     0.00
PostSCF               16       9.913     158.609     7.69
FINAL_HF              16       9.913     158.608     7.69
DHSCF4                16       4.359      69.747     3.38
dfscf                 16       3.558      56.922     2.76
overfsm               16       0.012       0.186     0.01
writeHSX              16       0.001       0.015     0.00
state_analysis        16       0.001       0.022     0.00
siesta_move           16       0.006       0.096     0.00
Analysis               1       0.006       0.006     0.00
optical                1       0.000       0.000     0.00

>> End of run:   1-JUL-2025  20:45:29
Job completed
Job completed