 NOTE: Siesta V5 introduces some new defaults for basis-set generation
 NOTE: which might lead to slightly different numerical results.
 NOTE: Please see the manual for full details and compatibility measures.

reinit: Reading from file optics.fdf

reinit: -----------------------------------------------------------------------
reinit: System Name:
reinit: -----------------------------------------------------------------------
reinit: System Label: AuPlas
reinit: -----------------------------------------------------------------------

initatom: Reading input for the pseudopotentials and atomic orbitals ----------
Species number:   1 Atomic number:   79 Label: Au

Ground state valence configuration (from tables):   6s01  6p00  5d10  5f00

---- Processing specs for species: Au
Reading pseudopotential information in PSML from:
  Au.psml
PSML file version: 1.1
GGA--PBE XC_GGA_X_PBE--XC_GGA_C_PBE pb
PSML uuid: fa497b30-be45-11e7-41fb-494093d7a025
Semicore shell(s) with  8 electrons included in the valence for Au

---- Pseudopotential check for Au

Pseudized shells:
5s( 2.00) rc: 1.46
5p( 6.00) rc: 1.56
5d(10.00) rc: 1.56
5f( 0.00) rc: 1.60
Valence configuration for ps generation: 5s:5p:5d:6s: Total charge:  19.000000
Semicore shell(s): 5s 5p
Fallback to non-perturbative polarization scheme for Au
Please see the manual if this is not desired in principle
For Au, standard SIESTA heuristics set lmxkb to 3
 (one more than the basis l, including polarization orbitals).
Use PS.lmax or PS.KBprojectors blocks to override.

<basis_specs>
Au                   Z=  79    Mass=  196.97        Charge= 0.17977+309
Lmxo=2 Lmxkb= 3    BasisType=split      Semic=T
L=0  Nsemic=1  Cnfigmx=6
          i=1  nzeta=1  polorb=0  (5s)  (semicore shell)
            splnorm:   0.15000
               vcte:    40.000
               rinn:  -0.90000
               qcoe:    0.0000
               qyuk:    0.0000
               qwid:   0.10000E-01
                rcs:    0.0000
            lambdas:    1.0000
          i=2  nzeta=2  polorb=0  (6s)  (to be polarized non-perturbatively)
            splnorm:   0.15000
               vcte:    40.000
               rinn:  -0.90000
               qcoe:    0.0000
               qyuk:    0.0000
               qwid:   0.10000E-01
                rcs:    0.0000      0.0000
            lambdas:    1.0000      1.0000
L=1  Nsemic=1  Cnfigmx=6
          i=1  nzeta=1  polorb=0  (5p)  (semicore shell)
            splnorm:   0.15000
               vcte:    40.000
               rinn:  -0.90000
               qcoe:    0.0000
               qyuk:    0.0000
               qwid:   0.10000E-01
                rcs:    0.0000
            lambdas:    1.0000
          i=2  nzeta=1  polorb=0  (6p)  (non-perturbative polarization shell)
            splnorm:   0.15000
               vcte:    40.000
               rinn:  -0.90000
               qcoe:    0.0000
               qyuk:   0.49407-323
               qwid:   0.44466-322
                rcs:    0.0000
            lambdas:    1.0000
L=2  Nsemic=0  Cnfigmx=5
          i=1  nzeta=2  polorb=0  (5d)
            splnorm:   0.15000
               vcte:    40.000
               rinn:  -0.90000
               qcoe:    0.0000
               qyuk:    0.0000
               qwid:   0.10000E-01
                rcs:    0.0000      0.0000
            lambdas:    1.0000      1.0000
L=0  Nkbl=2  erefs: 0.17977+309 0.17977+309
L=1  Nkbl=2  erefs: 0.17977+309 0.17977+309
L=2  Nkbl=1  erefs: 0.17977+309
L=3  Nkbl=1  erefs: 0.17977+309
</basis_specs>

Using PAO.SplitTailNorm
atom: Called for Au                    (Z =  79)
Maximum radius (at nrval) set to   50.00000 8518

read_vps: Pseudopotential generation method:
read_vps: ONCVPSP-3.Hamann's oncvpsp
Valence charge in pseudo generation:   19.00000

read_vps: Pseudopotential includes a core correction:
read_vps: Pseudo-core for xc-correction

xc_check: Exchange-correlation functional:
xc_check: GGA Perdew, Burke & Ernzerhof 1996
Got Vlocal (oncv-fit) from psml data
Choosing vlocal chloc cutoff:  5.037181
qtot up to nchloc:   18.99999407
atom: Maximum radius for chlocal:    5.03718
atom: Maximum radius for r*vlocal+2*Zval:    5.03718
Reading KB projs from Au psml data
Using scalar-relativistic projectors in PSML file

PSML: Kleinman-Bylander projectors:
   l= 0   rc=  1.474132   Ekb= 18.815768
   l= 0   rc=  1.474132   Ekb= -0.390506
   l= 1   rc=  1.583336   Ekb=  4.781134
   l= 1   rc=  1.583336   Ekb= -3.699696
   l= 2   rc=  1.583336   Ekb=  2.968821
   l= 2   rc=  1.583336   Ekb=  0.574456
   l= 3   rc=  1.622038   Ekb=  2.312314

PSML: Total number of  Kleinman-Bylander projectors:  25
atom: -------------------------------------------------------------------------

atom: SANKEY-TYPE ORBITALS:
atom: Selected multiple-zeta basis: split

SPLIT: Orbitals with angular momentum L= 0

SPLIT: Basis orbitals for state 5s

SPLIT: PAO cut-off radius determined from an
SPLIT: energy shift=  0.007350 Ry
Split based on tail norm

   izeta = 1
                 lambda =    1.000000
                     rc =    2.496356
                 energy =   -7.956837
                kinetic =    2.932320
    potential(screened) =  -10.889157
       potential(ionic) =  -37.521094

SPLIT: Basis orbitals for state 6s

[...]

   izeta = 2
                 rmatch =    4.534101
              splitnorm =    0.150000
                 energy =   -0.335475
                kinetic =    2.817838
    potential(screened) =   -3.153313
       potential(ionic) =  -21.809442

[...]

SPLIT: Basis orbitals for state 5p

[...]

SPLIT: Basis orbitals for state 6p
SPLIT: Non-perturbative polarization orbs for state 6s
SPLIT: rc(1st zeta) (re)set to: 6.3678 (expansion factor: 1.0000)
Split based on tail norm

[...]

SPLIT: Orbitals with angular momentum L= 2

SPLIT: Basis orbitals for state 5d

SPLIT: PAO cut-off radius determined from an
SPLIT: energy shift=  0.007350 Ry
Split based on tail norm

   izeta = 1
                 lambda =    1.000000
                     rc =    4.868461
                 energy =   -0.497216
                kinetic =    5.063426
    potential(screened) =   -5.560642
       potential(ionic) =  -26.932879

   izeta = 2
                 rmatch =    3.185776
              splitnorm =    0.150000
                 energy =   -0.335401
                kinetic =    6.477604
    potential(screened) =   -6.813005
       potential(ionic) =  -29.947526
atom: Total number of Sankey-type orbitals: 19

atm_pop: Valence configuration (for local Pseudopot. screening):
 5s( 2.00) 6s( 1.00)
 5p( 6.00) 6p( 0.00)
 5d(10.00)
Vna: chval, zval:   19.00000  19.00000

Vna:  Cut-off radius for the neutral-atom potential:   6.367842
comcore: Pseudo-core radius Rcore=  2.583037

atom: _________________________________________________________________________

prinput: Basis input

PAO.BasisType split

%block ChemicalSpeciesLabel
    1   79 Au                      # Species index, atomic number, species label
%endblock ChemicalSpeciesLabel

%block PAO.Basis                 # Define Basis set
# WARNING: This information might be incomplete!
Au                    5                    # Species label, number of l-shells
 n=5   0   1                         # n, l, Nzeta
   2.496
   1.000
 n=6   0   2                         # n, l, Nzeta
   6.368      4.534
   1.000      1.000
 n=5   1   1                         # n, l, Nzeta
   2.949
   1.000
 n=6   1   1                         # n, l, Nzeta
   6.368
   1.000
 n=5   2   2                         # n, l, Nzeta
   4.868      3.186
   1.000      1.000
%endblock PAO.Basis

prinput: ----------------------------------------------------------------------

Dumping basis to NetCDF file Au.ion.nc
coor:   Atomic-coordinates input format  =     Cartesian coordinates
coor:                                          (in Angstroms)

siesta: Atomic coordinates (Bohr) and species
siesta:      1.21545   0.36849   1.35073  1        1
siesta:      1.00576   4.83193   4.13825  1        2
siesta:      5.01571  -0.74574   4.75062  1        3
siesta:      4.01281   4.66997  -0.04817  1        4
siesta:      4.92024   6.82225   7.02931  1        5
siesta:      6.91274   0.60576  -0.15968  1        6
siesta:     -0.56218   7.54300   0.33163  1        7
siesta:      0.55982   0.02555   6.80578  1        8
siesta:      7.67525   3.99452   3.92668  1        9
siesta:      0.47447   4.96447   9.10026  1       10
siesta:      9.90888  -0.98279   3.81102  1       11
siesta:      4.26784   9.57535   0.63776  1       12

siesta: System type = molecule

initatomlists: Number of atoms, orbitals, and projectors:     12   228   300

coxmol: Writing XMOL coordinates into file AuPlas.xyz

siesta: ******************** Simulation parameters ****************************
siesta:
siesta: The following are some of the parameters of the simulation.
siesta: A complete list of the parameters used, including default values,
siesta: can be found in file out.fdf
siesta:
redata: Spin configuration                          = none
redata: Number of spin components                   = 1
redata: Time-Reversal Symmetry                      = T
redata: Spin spiral                                 = F
redata: Long output                                 =   F
redata: Number of Atomic Species                    =        1
redata: Charge density info will appear in .RHO file
redata: Write Mulliken charges (when)               = none
redata: Write Mulliken Pop.                         = NO
redata: Write Hirshfeld charges (when)              = none
redata: Write Voronoi charges (when)                = none
redata: Write spin charge (when)                    = none
redata: Matel table size (NRTAB)                    =     1024
redata: Mesh Cutoff                                 =   300.0000 Ry
redata: Net charge of the system                    =     0.0000 |e|
redata: Min. number of SCF Iter                     =        0
redata: Max. number of SCF Iter                     =     1000
redata: SCF convergence failure will abort job
redata: SCF mix quantity                            = Hamiltonian
redata: Mix DM or H after convergence               =   F
redata: Recompute H after scf cycle                 =   F
redata: Mix DM in first SCF step                    =   T
redata: Write Pulay info on disk                    =   F
redata: New DM Occupancy tolerance                  = 0.000000000001
redata: No kicks to SCF
redata: DM Mixing Weight for Kicks                  =     0.5000
redata: Require Harris convergence for SCF          =   F
redata: Harris energy tolerance for SCF             =     0.000100 eV
redata: Require DM convergence for SCF              =   T
redata: DM tolerance for SCF                        =     0.000100
redata: Require EDM convergence for SCF             =   F
redata: EDM tolerance for SCF                       =     0.001000 eV
redata: Require H convergence for SCF               =   T
redata: Hamiltonian tolerance for SCF               =     0.001000 eV
redata: Require (free) Energy convergence for SCF   =   F
redata: (free) Energy tolerance for SCF             =     0.000100 eV
redata: Using DFT-D3 dispersion                     =   F
redata: Using Saved Data (generic)                  =   F
redata: Use continuation files for DM               =   T
redata: Neglect nonoverlap interactions             =   F
redata: Method of Calculation                       = Diagonalization
redata: Electronic Temperature                      =   300.0000 K
redata: Fix the spin of the system                  =   F
redata: Max. number of TDED Iter                    =        1
redata: Number of TDED substeps                     =        3
redata: Dynamics option                             = Single-point calculation
mix.SCF: Pulay mixing                            = Pulay
mix.SCF:    Variant                              = stable
mix.SCF:    History steps                        = 2
mix.SCF:    Linear mixing weight                 =     0.250000
mix.SCF:    Mixing weight                        =     0.250000
mix.SCF:    SVD condition                        = 0.1000E-07
redata: Save all siesta data in one NC              =   F
redata: ***********************************************************************

%block SCF.Mixers
  Pulay
%endblock SCF.Mixers

%block SCF.Mixer.Pulay
  # Mixing method
  method pulay
  variant stable

  # Mixing options
  weight 0.2500
  weight.linear 0.2500
  history 2
%endblock SCF.Mixer.Pulay

DM_history_depth set to one: no extrapolation allowed by default for geometry relaxation
Size of DM history Fstack: 1
Total number of electrons:   228.000000
Total ionic charge:   228.000000

siesta: k-grid: Number of k-points = 1
siesta: k-point is Gamma-only

diag: Algorithm                                     = D&C
diag: Used triangular part                          = Lower
diag: Absolute tolerance                            =  0.100E-15
diag: Orthogonalization factor                      =  0.100E-05

ts: **************************************************************
ts: Save H and S matrices                           =    F
ts: Save DM and EDM matrices                        =    F
ts: Only save the overlap matrix S                  =    F
ts: **************************************************************

************************ Begin: TS CHECKS AND WARNINGS ************************
************************ End: TS CHECKS AND WARNINGS **************************

                        Single-point calculation

outcell: Unit cell vectors (Ang):
       20.000000    0.000000    0.000000
        0.000000   20.000000    0.000000
        0.000000    0.000000   20.000000

outcell: Cell vector modules (Ang)   :   20.000000   20.000000   20.000000
outcell: Cell angles (23,13,12) (deg):     90.0000     90.0000     90.0000
outcell: Cell volume (Ang**3)        :   8000.0000
<dSpData1D:S at geom step 0
  <sparsity:sparsity for geom step 0
    nrows_g=228 nrows=228 sparsity=.6617 nnzs=34396, refcount: 7>
  <dData1D:(new from dSpData1D) n=34396, refcount: 1>
refcount: 1>
new_DM -- step:     1
Initializing Density Matrix...

Attempting to read DM from file... Failed...
DM filled with atomic data:
<dSpData2D:DM initialized from atoms
  <sparsity:sparsity for geom step 0
    nrows_g=228 nrows=228 sparsity=.6617 nnzs=34396, refcount: 8>
  <dData2D:DM n=34396 m=1, refcount: 1>
refcount: 1>
No. of atoms with KB's overlaping orbs in proc 0. Max # of overlaps:      12      91

InitMesh: MESH = 216 x 216 x 216 = 10077696
InitMesh: Mesh cutoff (required, used) =   300.000   322.366 Ry
New grid distribution [1]: sub = 2

stepf: Fermi-Dirac step function

siesta: Program's energy decomposition (eV):
siesta: Ebs     =     -9876.067541
siesta: Eions   =     60933.748089
siesta: Ena     =      5942.582460
siesta: Ekin    =     13110.707295
siesta: Enl     =       791.716162
siesta: Eso     =         0.000000
siesta: Edftu   =         0.000000
siesta: DEna    =      1011.155769
siesta: DUscf   =        88.904950
siesta: DUext   =         0.000000
siesta: Ex      =     -7839.918640
siesta: Ec      =      -480.404158
siesta: Exc     =     -8320.322798
siesta: EbV     =         0.000000
siesta: eta*DQ  =         0.000000
siesta: Emadel  =         0.000000
siesta: Emeta   =         0.000000
siesta: Emolmec =         0.000000
siesta: Ekinion =         0.000000
siesta: Eharris =    -48212.994271
siesta: Etot    =    -48309.004251
siesta: FreeEng =    -48309.028162

SCF Convergence by DM+H criterion
max |DM_out - DM_in|         :     0.0000727895
max |H_out - H_in|      (eV) :     0.0004732611
SCF cycle converged after 29 iterations

Using DM_out to compute the final energy and forces
No. of atoms with KB's overlaping orbs in proc 0. Max # of overlaps:      12      91

siesta: E_KS(eV) =           -48360.9379

siesta: E_KS - E_eggbox =    -48360.9379

siesta: Atomic forces (eV/Ang):
   Tot   -0.006317   -0.011260   -0.013256
   Max    0.644803
   Res    0.331371    sqrt( Sum f_i^2 / 3N )
   Max    0.644803    constrained

Stress tensor Voigt[x,y,z,yz,xz,xy] (kbar):        0.83        0.59        0.54       -0.19        0.02        0.35
(Free)E + p*V (eV/cell)   -48364.2031
Target enthalpy (eV/cell)   -48360.9397

coxmol: Writing XMOL coordinates into file AuPlas.xyz

siesta: Program's energy decomposition (eV):
siesta: Ebs     =     -7823.270639
siesta: Eions   =     60933.748089
siesta: Ena     =      5942.582460
siesta: Ekin    =     13930.402708
siesta: Enl     =       810.885971
siesta: Eso     =         0.000000
siesta: Edftu   =         0.000000
siesta: DEna    =       375.549126
siesta: DUscf   =        11.609441
siesta: DUext   =         0.000000
siesta: Ex      =     -8013.329140
siesta: Ec      =      -484.890336
siesta: Exc     =     -8498.219476
siesta: EbV     =         0.000000
siesta: eta*DQ  =         0.000000
siesta: Emadel  =         0.000000
siesta: Emeta   =         0.000000
siesta: Emolmec =         0.000000
siesta: Ekinion =         0.000000
siesta: Eharris =    -48360.937860
siesta: Etot    =    -48360.937860
siesta: FreeEng =    -48360.939678

siesta: Final energy (eV):
siesta:  Band Struct. =   -7823.270639
siesta:       Kinetic =   13930.402708
siesta:       Hartree =   78078.949536
siesta:         Edftu =       0.000000
siesta:       Eso     =       0.000000
siesta:    Ext. field =       0.000000
siesta:         Exch. =   -8013.329140
siesta:         Corr. =    -484.890336
siesta:     Bulk bias =       0.000000
siesta:   Exch.-corr. =   -8498.219476
siesta:  Ion-electron = -171818.658754
siesta:       Ion-ion =   39946.588126
siesta:       Ekinion =       0.000000
siesta: D3 dispersion =       0.000000
siesta:         Total =  -48360.937860
siesta:         Fermi =      -4.113050

siesta: Atomic forces (eV/Ang):
siesta:      1    0.560675    0.235266    0.366633
siesta:      2    0.146519   -0.266830    0.644803
siesta:      3   -0.054287    0.205668   -0.003473
siesta:      4   -0.125302   -0.212676   -0.264211
siesta:      5   -0.394321   -0.236446   -0.418692
siesta:      6   -0.179191   -0.311458    0.383406
siesta:      7    0.475779    0.314145   -0.370466
siesta:      8    0.159644    0.529441   -0.526260
siesta:      9   -0.342305   -0.321028   -0.166444
siesta:     10    0.202701   -0.037973   -0.064705
siesta:     11   -0.024639    0.312859   -0.212462
siesta:     12   -0.431591   -0.222228    0.618616
siesta: ----------------------------------------
siesta:    Tot   -0.006317   -0.011260   -0.013256

siesta: Stress tensor (static) (eV/Ang**3):
siesta:     0.000518    0.000217    0.000015
siesta:     0.000217    0.000370   -0.000116
siesta:     0.000015   -0.000116    0.000336

siesta: Cell volume =       8000.000000 Ang**3

siesta: Pressure (static):
siesta:                Solid            Molecule  Units
siesta:          -0.00000444          0.00000005  Ry/Bohr**3
siesta:          -0.00040793          0.00000421  eV/Ang**3
siesta:          -0.65357733          0.00674573  kBar
(Free)E+ p_basis*V_orbitals  =      -48353.514582
(Free)Eharris+ p_basis*V_orbitals  =      -48353.514582

siesta: Electric dipole (a.u.)  =   -0.154468    0.378985   -0.081035
siesta: Electric dipole (Debye) =   -0.392619    0.963283   -0.205971

Optical: Performing optical calculation:

Optical: Polarization type       = polarized
Optical: Minimum of energy range =   0.5880 Ry
Optical: Maximum of energy range =   0.5880 Ry
Optical: Gaussian broadening     =   0.0000 Ry
Optical: Scissor operator        =   0.2205 Ry
Optical: Number of bands         =      228
Optical: Number of electrons     =      228
Optical: BZ mesh dimensions      =    1   1   1

Optical: electric field direction
Optical:      0.89443     0.00000     0.44721

Optical: Checking f-sum rule  0.000000
Optical: For insulators and closed shell systems
Optical: this number should be close to 1 if an enough
Optical: number of unoccupied bands have been included

cite: Please indicate the Siesta version in published work: 5.2.2
cite: This calculation has made use of features in the following articles
cite: which we encourage you to cite in published work.
cite: (Please see "AuPlas.bib" for a BibTeX file.)
        Primary SIESTA paper
          DOI: www.doi.org/10.1088/0953-8984/14/11/302
        PSML pseudopotential format
          DOI: www.doi.org/10.1016/j.cpc.2018.02.011

Routine            Calls   Time/call    Tot.time        %
siesta                 1     143.835     143.835   100.00
Setup                  1       0.140       0.140     0.10
bands                  1       0.000       0.000     0.00
KSV_init               1       0.000       0.000     0.00
IterGeom               1     140.454     140.454    97.65
geom_init              1       9.365       9.365     6.51
state_init             1       0.350       0.350     0.24
hsparse                1       0.002       0.002     0.00
overlap                1       0.344       0.344     0.24
Setup_H0               1       5.400       5.400     3.75
naefs                  2       0.000       0.000     0.00
dnaefs                 2       0.000       0.000     0.00
MolMec                 2       0.000       0.000     0.00
kinefsm                2       0.187       0.374     0.26
nlefsm                 2       0.820       1.641     1.14
DHSCF_Init             1       3.431       3.431     2.39
DHSCF1                 1       0.085       0.085     0.06
InitMesh               1       0.085       0.085     0.06
INITMESH               1       0.000       0.000     0.00
DHSCF2                 1       3.346       3.346     2.33
REMESH                 1       0.167       0.167     0.12
REORD                 77       0.026       2.030     1.41
PHION                  1       1.612       1.612     1.12
COMM_BSC             127       0.022       2.800     1.95
POISON                32       1.376      44.045    30.62
fft                   64       0.559      35.776    24.87
setup_H               30       4.254     127.635    88.74
DHSCF                 31       4.281     132.705    92.26
DHSCF3                31       4.213     130.597    90.80
rhoofd                31       0.470      14.575    10.13
XC                    31       1.620      50.205    34.90
GXC-CellXC            31       1.518      47.054    32.71
gridxc@cellXC         31       1.518      47.053    32.71
vmat                  31       0.340      10.552     7.34
IterSCF               29       4.341     125.903    87.53
compute_dm            29       0.063       1.834     1.28
diagon                29       0.063       1.826     1.27
r-eigvec              29       0.037       1.060     0.74
r-buildHS             29       0.000       0.010     0.01
rdiag                 30       0.036       1.081     0.75
rdiag1                30       0.001       0.035     0.02
rdiag2                30       0.003       0.104     0.07
rdiag3                30       0.022       0.668     0.46
rdiag4                30       0.009       0.268     0.19
r-buildD              29       0.026       0.755     0.52
MIXER                 28       0.001       0.015     0.01
PostSCF                1       5.184       5.184     3.60
FINAL_HF               1       5.184       5.184     3.60
DHSCF4                 1       2.108       2.108     1.47
dfscf                  1       1.672       1.672     1.16
overfsm                1       0.013       0.013     0.01
writeHSX               1       0.001       0.001     0.00
state_analysis         1       0.001       0.001     0.00
siesta_move            1       0.000       0.000     0.00
Analysis               1       3.238       3.238     2.25
optical                1       3.235       3.235     2.25
phirphiopt             1       3.201       3.201     2.23
transrate              1       0.001       0.001     0.00

>> End of run:   2-JUL-2025   0:02:00
Job completed
Job completed