 NOTE: Siesta V5 introduces some new defaults for basis-set generation
 NOTE: which might lead to slightly different numerical results.
 NOTE: Please see the manual for full details and compatibility measures.

reinit: Reading from file relaxation.fdf

reinit: -----------------------------------------------------------------------
reinit: System Name:
reinit: -----------------------------------------------------------------------
reinit: System Label: AuRel
reinit: -----------------------------------------------------------------------

initatom: Reading input for the pseudopotentials and atomic orbitals ----------
Species number:   1 Atomic number:   79 Label: Au

Ground state valence configuration (from tables):   6s01  6p00  5d10  5f00

---- Processing specs for species: Au
Reading pseudopotential information in PSML from:
  Au.psml
PSML file version: 1.1
GGA--PBE XC_GGA_X_PBE--XC_GGA_C_PBE pb
PSML uuid: fa497b30-be45-11e7-41fb-494093d7a025
Semicore shell(s) with  8 electrons included in the valence for Au

---- Pseudopotential check for Au

Pseudized shells:
5s( 2.00) rc: 1.46
5p( 6.00) rc: 1.56
5d(10.00) rc: 1.56
5f( 0.00) rc: 1.60
Valence configuration for ps generation: 5s:5p:5d:6s: Total charge:  19.000000
Semicore shell(s): 5s 5p
Fallback to non-perturbative polarization scheme for Au
Please see the manual if this is not desired in principle
For Au, standard SIESTA heuristics set lmxkb to 3
 (one more than the basis l, including polarization orbitals).
Use PS.lmax or PS.KBprojectors blocks to override.

<basis_specs>
Au                   Z=  79    Mass=  196.97        Charge= 0.17977+309
Lmxo=2 Lmxkb= 3    BasisType=split      Semic=T
L=0  Nsemic=1  Cnfigmx=6
          i=1  nzeta=1  polorb=0  (5s)  (semicore shell)
            splnorm:   0.15000
               vcte:    40.000
               rinn:  -0.90000
               qcoe:    0.0000
               qyuk:    0.0000
               qwid:   0.10000E-01
                rcs:    0.0000
            lambdas:    1.0000
          i=2  nzeta=2  polorb=0  (6s)  (to be polarized non-perturbatively)
            splnorm:   0.15000
               vcte:    40.000
               rinn:  -0.90000
               qcoe:    0.0000
               qyuk:    0.0000
               qwid:   0.10000E-01
                rcs:    0.0000      0.0000
            lambdas:    1.0000      1.0000
L=1  Nsemic=1  Cnfigmx=6
          i=1  nzeta=1  polorb=0  (5p)  (semicore shell)
            splnorm:   0.15000
               vcte:    40.000
               rinn:  -0.90000
               qcoe:    0.0000
               qyuk:    0.0000
               qwid:   0.10000E-01
                rcs:    0.0000
            lambdas:    1.0000
          i=2  nzeta=1  polorb=0  (6p)  (non-perturbative polarization shell)
            splnorm:   0.15000
               vcte:    40.000
               rinn:  -0.90000
               qcoe:   0.19310-311
               qyuk:   0.19763-322
               qwid:   0.21220-312
                rcs:    0.0000
            lambdas:    1.0000
L=2  Nsemic=0  Cnfigmx=5
          i=1  nzeta=2  polorb=0  (5d)
            splnorm:   0.15000
               vcte:    40.000
               rinn:  -0.90000
               qcoe:    0.0000
               qyuk:    0.0000
               qwid:   0.10000E-01
                rcs:    0.0000      0.0000
            lambdas:    1.0000      1.0000
L=0  Nkbl=2  erefs: 0.17977+309 0.17977+309
L=1  Nkbl=2  erefs: 0.17977+309 0.17977+309
L=2  Nkbl=1  erefs: 0.17977+309
L=3  Nkbl=1  erefs: 0.17977+309
</basis_specs>

Using PAO.SplitTailNorm
atom: Called for Au                    (Z =  79)
Maximum radius (at nrval) set to   50.00000 8518

read_vps: Pseudopotential generation method:
read_vps: ONCVPSP-3.Hamann's oncvpsp
Valence charge in pseudo generation:   19.00000

read_vps: Pseudopotential includes a core correction:
read_vps: Pseudo-core for xc-correction

xc_check: Exchange-correlation functional:
xc_check: GGA Perdew, Burke & Ernzerhof 1996
Got Vlocal (oncv-fit) from psml data
Choosing vlocal chloc cutoff:  5.037181
qtot up to nchloc:   18.99999407
atom: Maximum radius for chlocal:    5.03718
atom: Maximum radius for r*vlocal+2*Zval:    5.03718
Reading KB projs from Au psml data
Using scalar-relativistic projectors in PSML file

PSML: Kleinman-Bylander projectors:
   l= 0   rc=  1.474132   Ekb= 18.815768
   l= 0   rc=  1.474132   Ekb= -0.390506
   l= 1   rc=  1.583336   Ekb=  4.781134
   l= 1   rc=  1.583336   Ekb= -3.699696
   l= 2   rc=  1.583336   Ekb=  2.968821
   l= 2   rc=  1.583336   Ekb=  0.574456
   l= 3   rc=  1.622038   Ekb=  2.312314

PSML: Total number of  Kleinman-Bylander projectors:  25
atom: -------------------------------------------------------------------------

atom: SANKEY-TYPE ORBITALS:
atom: Selected multiple-zeta basis: split

SPLIT: Orbitals with angular momentum L= 0

SPLIT: Basis orbitals for state 5s

SPLIT: PAO cut-off radius determined from an
SPLIT: energy shift=  0.022050 Ry
Split based on tail norm

   izeta = 1
                 lambda =    1.000000
                     rc =    2.285223
                 energy =   -7.940849
                kinetic =    2.998226
    potential(screened) =  -10.939075
       potential(ionic) =  -37.619374

SPLIT: Basis orbitals for state 6s

[...]

   izeta = 2
                 rmatch =    4.180541
              splitnorm =    0.150000
                 energy =   -0.216639
                kinetic =    3.239096
    potential(screened) =   -3.455735
       potential(ionic) =  -22.824107

[...]

SPLIT: Basis orbitals for state 5p

[...]

SPLIT: Basis orbitals for state 6p
SPLIT: Non-perturbative polarization orbs for state 6s
SPLIT: rc(1st zeta) (re)set to: 5.5346 (expansion factor: 1.0000)
Split based on tail norm

[...]

SPLIT: Orbitals with angular momentum L= 2

SPLIT: Basis orbitals for state 5d

SPLIT: PAO cut-off radius determined from an
SPLIT: energy shift=  0.022050 Ry
Split based on tail norm

   izeta = 1
                 lambda =    1.000000
                     rc =    4.163812
                 energy =   -0.481336
                kinetic =    5.250163
    potential(screened) =   -5.731499
       potential(ionic) =  -27.404356

   izeta = 2
                 rmatch =    2.940073
              splitnorm =    0.150000
                 energy =   -0.247221
                kinetic =    6.924253
    potential(screened) =   -7.171474
       potential(ionic) =  -30.705325
atom: Total number of Sankey-type orbitals: 19

atm_pop: Valence configuration (for local Pseudopot. screening):
 5s( 2.00) 6s( 1.00)
 5p( 6.00) 6p( 0.00)
 5d(10.00)
Vna: chval, zval:   19.00000  19.00000

Vna:  Cut-off radius for the neutral-atom potential:   5.534630
comcore: Pseudo-core radius Rcore=  2.583037

atom: _________________________________________________________________________

prinput: Basis input

PAO.BasisType split

%block ChemicalSpeciesLabel
    1   79 Au                      # Species index, atomic number, species label
%endblock ChemicalSpeciesLabel

%block PAO.Basis                 # Define Basis set
# WARNING: This information might be incomplete!
Au                    5                    # Species label, number of l-shells
 n=5   0   1                         # n, l, Nzeta
   2.285
   1.000
 n=6   0   2                         # n, l, Nzeta
   5.535      4.181
   1.000      1.000
 n=5   1   1                         # n, l, Nzeta
   2.673
   1.000
 n=6   1   1                         # n, l, Nzeta
   5.535
   1.000
 n=5   2   2                         # n, l, Nzeta
   4.164      2.940
   1.000      1.000
%endblock PAO.Basis

prinput: ----------------------------------------------------------------------

Dumping basis to NetCDF file Au.ion.nc
coor:   Atomic-coordinates input format  =     Cartesian coordinates
coor:                                          (in Angstroms)

siesta: Atomic coordinates (Bohr) and species
siesta:      0.00000   0.00000   0.00000  1        1
siesta:      0.00000   3.94129   3.94129  1        2
siesta:      3.94129   0.00000   3.94129  1        3
siesta:      3.94129   3.94129   0.00000  1        4
siesta:      0.00000   7.88260   0.00000  1        5
siesta:      0.00000  11.82388   3.94129  1        6
siesta:      3.94129   7.88260   3.94129  1        7
siesta:      3.94129  11.82388   0.00000  1        8
siesta:      7.88260   0.00000   0.00000  1        9
siesta:      7.88260   3.94129   3.94129  1       10
siesta:     11.82388   0.00000   3.94129  1       11
siesta:     11.82388   3.94129   0.00000  1       12
siesta:      7.88260   7.88260   0.00000  1       13
siesta:      7.88260  11.82388   3.94129  1       14
siesta:     11.82388   7.88260   3.94129  1       15
siesta:     11.82388  11.82388   0.00000  1       16

siesta: System type = molecule

initatomlists: Number of atoms, orbitals, and projectors:     16   304   400

coxmol: Writing XMOL coordinates into file AuRel.xyz

siesta: ******************** Simulation parameters ****************************
siesta:
siesta: The following are some of the parameters of the simulation.
siesta: A complete list of the parameters used, including default values,
siesta: can be found in file out.fdf
siesta:
redata: Spin configuration                          = none
redata: Number of spin components                   = 1
redata: Time-Reversal Symmetry                      = T
redata: Spin spiral                                 = F
redata: Long output                                 =   F
redata: Number of Atomic Species                    =        1
redata: Charge density info will appear in .RHO file
redata: Write Mulliken charges (when)               = none
redata: Write Mulliken Pop.                         = NO
redata: Write Hirshfeld charges (when)              = none
redata: Write Voronoi charges (when)                = none
redata: Write spin charge (when)                    = none
redata: Matel table size (NRTAB)                    =     1024
redata: Mesh Cutoff                                 =   300.0000 Ry
redata: Net charge of the system                    =     0.0000 |e|
redata: Min. number of SCF Iter                     =        0
redata: Max. number of SCF Iter                     =     1000
redata: SCF convergence failure will abort job
redata: SCF mix quantity                            = Hamiltonian
redata: Mix DM or H after convergence               =   F
redata: Recompute H after scf cycle                 =   F
redata: Mix DM in first SCF step                    =   T
redata: Write Pulay info on disk                    =   F
redata: New DM Occupancy tolerance                  = 0.000000000001
redata: No kicks to SCF
redata: DM Mixing Weight for Kicks                  =     0.5000
redata: Require Harris convergence for SCF          =   F
redata: Harris energy tolerance for SCF             =     0.000100 eV
redata: Require DM convergence for SCF              =   T
redata: DM tolerance for SCF                        =     0.000100
redata: Require EDM convergence for SCF             =   F
redata: EDM tolerance for SCF                       =     0.001000 eV
redata: Require H convergence for SCF               =   T
[...]
   scf:   38   -64439.535459   -64439.535460   -64439.607137  0.000599 -2.510189  0.002943
   scf:   39   -64439.535445   -64439.535456   -64439.607133  0.001374 -2.510189  0.006214
   scf:   40   -64439.535450   -64439.535459   -64439.607136  0.001730 -2.510189  0.005168
   scf:   41   -64439.535460   -64439.535460   -64439.607137  0.000668 -2.510190  0.003008
   scf:   42   -64439.535438   -64439.535454   -64439.607131  0.001625 -2.510190  0.007542
   scf:   43   -64439.535453   -64439.535460   -64439.607137  0.001724 -2.510190  0.004117
   scf:   44   -64439.535459   -64439.535460   -64439.607137  0.000593 -2.510190  0.002635
   scf:   45   -64439.535447   -64439.535457   -64439.607134  0.001242 -2.510190  0.005729
   scf:   46   -64439.535451   -64439.535459   -64439.607136  0.001604 -2.510190  0.004907
   scf:   47   -64439.535460   -64439.535460   -64439.607137  0.000659 -2.510190  0.002710
   scf:   48   -64439.535442   -64439.535455   -64439.607132  0.001462 -2.510190  0.006890
   scf:   49   -64439.535454   -64439.535460   -64439.607137  0.001577 -2.510190  0.003903
   scf:   50   -64439.535459   -64439.535460   -64439.607137  0.000584 -2.510190  0.002356
   scf:   51   -64439.535450   -64439.535457   -64439.607134  0.001120 -2.510190  0.005273
   scf:   52   -64439.535452   -64439.535459   -64439.607136  0.001486 -2.510190  0.004657
   scf:   53   -64439.535460   -64439.535460   -64439.607137  0.000648 -2.510190  0.002439
   scf:   54   -64439.535446   -64439.535456   -64439.607133  0.001313 -2.510190  0.006282
   scf:   55   -64439.535454   -64439.535460   -64439.607137  0.001443 -2.510190  0.003698
   scf:   56   -64439.535460   -64439.535460   -64439.607138  0.000573 -2.510190  0.002105
   scf:   57   -64439.535452   -64439.535458   -64439.607135  0.001009 -2.510190  0.004845
   scf:   58   -64439.535453   -64439.535459   -64439.607136  0.001376 -2.510190  0.004419
   scf:   59   -64439.535460   -64439.535460   -64439.607138  0.000635 -2.510190  0.002194
   scf:   60   -64439.535449   -64439.535457   -64439.607134  0.001177 -2.510190  0.005716
[...]
   scf:  157   -64439.535460   -64439.535461   -64439.607138  0.000344 -2.510190  0.001298
   scf:  158   -64439.535461   -64439.535461   -64439.607138  0.000293 -2.510190  0.000674
   scf:  159   -64439.535461   -64439.535461   -64439.607138  0.000127 -2.510190  0.000962
   scf:  160   -64439.535460   -64439.535460   -64439.607138  0.000391 -2.510190  0.001607
   scf:  161   -64439.535461   -64439.535461   -64439.607138  0.000329 -2.510190  0.000527
   scf:  162   -64439.535461   -64439.535461   -64439.607138  0.000137 -2.510190  0.000962
   scf:  163   -64439.535460   -64439.535461   -64439.607138  0.000317 -2.510190  0.001206
   scf:  164   -64439.535461   -64439.535461   -64439.607138  0.000277 -2.510190  0.000640
   scf:  165   -64439.535461   -64439.535461   -64439.607138  0.000110 -2.510190  0.000870
   scf:  166   -64439.535460   -64439.535460   -64439.607138  0.000363 -2.510190  0.001494
   scf:  167   -64439.535461   -64439.535461   -64439.607138  0.000311 -2.510190  0.000502
   scf:  168   -64439.535461   -64439.535461   -64439.607138  0.000118 -2.510190  0.000862
   scf:  169   -64439.535460   -64439.535461   -64439.607138  0.000292 -2.510190  0.001118
   scf:  170   -64439.535461   -64439.535461   -64439.607138  0.000262 -2.510190  0.000608
   scf:  171   -64439.535461   -64439.535461   -64439.607138  0.000094 -2.510190  0.000786

[...]

outcell: Cell vector modules (Ang)   :   15.244026   15.244026   11.619353
outcell: Cell angles (23,13,12) (deg):     90.0071     90.0071     90.0110
outcell: Cell volume (Ang**3)        :   2700.1088
<dSpData1D:S at geom step 5
  <sparsity:sparsity for geom step 5
    nrows_g=304 nrows=304 sparsity=.5126 nnzs=47376, refcount: 7>
  <dData1D:(new from dSpData1D) n=47376, refcount: 1>
refcount: 1>
new_DM -- step:     6
Re-using DM from previous geometries...
Number of DMs in history: 1
 DM extrapolation coefficients:
1   1.00000
New DM after history re-use:
<dSpData2D:SpM extrapolated using coords
  <sparsity:sparsity for geom step 5
    nrows_g=304 nrows=304 sparsity=.5126 nnzs=47376, refcount: 9>
  <dData2D:(temp array for extrapolation) n=47376 m=1, refcount: 1>
refcount: 1>
No. of atoms with KB's overlaping orbs in proc 0. Max # of overlaps:      16      99

[...]

cgvc: Finished line minimization    1.  Mean atomic displacement =    0.1284

[...]

outcell: Cell vector modules (Ang)   :   14.787467   14.787286   13.963647
outcell: Cell angles (23,13,12) (deg):     81.7570     81.7567     85.5134
outcell: Cell volume (Ang**3)        :   2985.4278
<dSpData1D:S at geom step 52
  <sparsity:sparsity for geom step 52
    nrows_g=304 nrows=304 sparsity=.5494 nnzs=50776, refcount: 7>
  <dData1D:(new from dSpData1D) n=50776, refcount: 1>
refcount: 1>
new_DM -- step:    53
Re-using DM from previous geometries...
Number of DMs in history: 1
 DM extrapolation coefficients:
1   1.00000
New DM after history re-use:
<dSpData2D:SpM extrapolated using coords
  <sparsity:sparsity for geom step 52
    nrows_g=304 nrows=304 sparsity=.5494 nnzs=50776, refcount: 9>
  <dData2D:(temp array for extrapolation) n=50776 m=1, refcount: 1>
refcount: 1>
Note: For starting DM, Qtot, Tr[D*S] =        304.00000000        303.67031477
No. of atoms with KB's overlaping orbs in proc 0. Max # of overlaps:      16     105

[...]

                        Begin CG opt. move =    100

[...]

outcell: Cell vector modules (Ang)   :   14.859127   14.566444   13.767759
outcell: Cell angles (23,13,12) (deg):     82.6546     82.5957     82.8591
outcell: Cell volume (Ang**3)        :   2913.1893
<dSpData1D:S at geom step 100
  <sparsity:sparsity for geom step 100
    nrows_g=304 nrows=304 sparsity=.5461 nnzs=50464, refcount: 7>
  <dData1D:(new from dSpData1D) n=50464, refcount: 1>
refcount: 1>
new_DM -- step:   101
Re-using DM from previous geometries...
Number of DMs in history: 1
 DM extrapolation coefficients:
1   1.00000
New DM after history re-use:
<dSpData2D:SpM extrapolated using coords
  <sparsity:sparsity for geom step 100
    nrows_g=304 nrows=304 sparsity=.5461 nnzs=50464, refcount: 9>
  <dData2D:(temp array for extrapolation) n=50464 m=1, refcount: 1>
refcount: 1>
No. of atoms with KB's overlaping orbs in proc 0. Max # of overlaps:      16      87

InitMesh: MESH = 160 x 150 x 144 = 3456000
InitMesh: Mesh cutoff (required, used) =   300.000   301.569 Ry
New grid distribution [1]: sub = 2

        iscf     Eharris(eV)        E_KS(eV)     FreeEng(eV)     dDmax    Ef(eV) dHmax(eV)
   scf:    1   -64447.481013   -64447.467486   -64447.515351  0.001397 -2.800265  0.018081
   scf:    2   -64447.466757   -64447.467318   -64447.515053  0.002751 -2.801690  0.084832
   scf:    3   -64447.467452   -64447.467518   -64447.515371  0.002231 -2.800515  0.001790
   scf:    4   -64447.467548   -64447.467533   -64447.515372  0.000166 -2.800487  0.001523
   scf:    5   -64447.467532   -64447.467533   -64447.515372  0.000090 -2.800488  0.000522

SCF Convergence by DM+H criterion
max |DM_out - DM_in|         :     0.0000903840
max |H_out - H_in|      (eV) :     0.0005219468
SCF cycle converged after 5 iterations

Using DM_out to compute the final energy and forces
No. of atoms with KB's overlaping orbs in proc 0. Max # of overlaps:      16      87

siesta: E_KS(eV) =           -64447.4675

siesta: Atomic forces (eV/Ang):
   Tot   -0.024793    0.014605    0.009932
   Max    0.410410
   Res    0.128073    sqrt( Sum f_i^2 / 3N )
   Max    0.410410    constrained

Stress tensor Voigt[x,y,z,yz,xz,xy] (kbar):        0.61        0.96       -0.10        0.18        0.03       -0.24
(Free)E + p*V (eV/cell)   -64448.4050
Target enthalpy (eV/cell)   -64447.5154

siesta: Stress tensor (static) (eV/Ang**3):
         0.000380   -0.000148    0.000021
        -0.000148    0.000601    0.000114
         0.000021    0.000114   -0.000065

siesta: Pressure (static):         -0.48929300  kBar

siesta: Stress tensor (total) (eV/Ang**3):
         0.000380   -0.000148    0.000021
        -0.000148    0.000601    0.000114
         0.000021    0.000114   -0.000065

siesta: Pressure (total):         -0.48929300  kBar

cgvc: Finished line minimization   37.  Mean atomic displacement =    0.0729

outcoor: Final (unrelaxed) atomic coordinates (Ang):
    0.07399972    0.03871613    0.30656953   1       1  Au
    0.18516941    2.10640332    1.91094333   1       2  Au
    2.13942043    0.27502370    1.92907218   1       3  Au
    1.85683952    1.82219333   -0.33170871   1       4  Au
    0.93680231    4.23616499    0.45350756   1       5  Au
    1.21458505    6.21437207    2.49352427   1       6  Au
    1.95185074    3.71871909    2.87732246   1       7  Au
    2.95364422    6.01724603    0.62213812   1       8  Au
    4.30776780    0.90065011    0.48518735   1       9  Au
    3.85070983    1.97772863    2.90745179   1      10  Au
    6.34251237    1.20789580    2.50988328   1      11  Au
    6.12013107    2.89048278    0.59498139   1      12  Au
    3.69846885    3.62065965   -0.15158537   1      13  Au
    3.84773405    5.57206984    3.13016808   1      14  Au
    5.77122530    3.78379438    3.14986132   1      15  Au
    5.49148291    5.39763233    0.92113166   1      16  Au

outcell: Unit cell vectors (Ang):
       14.796465    0.882159    1.039263
        0.882159   14.503998    1.018395
        0.772603    0.757090   13.725199

outcell: Cell vector modules (Ang)   :   14.859127   14.566444   13.767759
outcell: Cell angles (23,13,12) (deg):     82.6546     82.5957     82.8591
outcell: Cell volume (Ang**3)        :   2913.1893

coxmol: Writing XMOL coordinates into file AuRel.xyz

siesta: Program's energy decomposition (eV):
siesta: Ebs     =    -10083.732865
siesta: Eions   =     81244.997452
siesta: Ena     =      7530.675508
siesta: Ekin    =     18692.680338
siesta: Enl     =      1072.176623
siesta: Eso     =         0.000000
siesta: Edftu   =         0.000000
siesta: DEna    =       827.727275
siesta: DUscf   =        36.889072
siesta: DUext   =         0.000000
siesta: Ex      =    -10710.153081
siesta: Ec      =      -652.465815
siesta: Exc     =    -11362.618896
siesta: EbV     =         0.000000
siesta: eta*DQ  =         0.000000
siesta: Emadel  =         0.000000
siesta: Emeta   =         0.000000
siesta: Emolmec =         0.000000
siesta: Ekinion =         0.000000
siesta: Eharris =    -64447.467532
siesta: Etot    =    -64447.467533
siesta: FreeEng =    -64447.515372

siesta: Final energy (eV):
siesta:  Band Struct. =  -10083.732865
siesta:       Kinetic =   18692.680338
siesta:       Hartree =   91550.018794
siesta:         Edftu =       0.000000
siesta:       Eso     =       0.000000
siesta:    Ext. field =       0.000000
siesta:         Exch. =  -10710.153081
siesta:         Corr. =    -652.465815
siesta:     Bulk bias =       0.000000
siesta:   Exch.-corr. =  -11362.618896
siesta:  Ion-electron = -203708.601224
siesta:       Ion-ion =   40381.053456
siesta:       Ekinion =       0.000000
siesta: D3 dispersion =       0.000000
siesta:         Total =  -64447.467533
siesta:         Fermi =      -2.800488

siesta: Atomic forces (eV/Ang):
siesta:      1   -0.030686   -0.133752    0.043671
siesta:      2   -0.177753   -0.059243   -0.072695
siesta:      3   -0.026845    0.157766   -0.007849
siesta:      4    0.083400    0.127059    0.142062
siesta:      5    0.276629    0.005297   -0.181806
siesta:      6    0.026384   -0.010184    0.018591
siesta:      7    0.215504   -0.064453    0.137896
siesta:      8    0.026580    0.066130   -0.072027
siesta:      9   -0.042131    0.219402   -0.075583
siesta:     10    0.045442    0.266827    0.041741
siesta:     11    0.007277   -0.088986    0.020581
siesta:     12    0.024065    0.031210   -0.149589
siesta:     13   -0.136811   -0.163907    0.127138
siesta:     14   -0.014196   -0.410410   -0.038782
siesta:     15   -0.183752    0.132340    0.038576
siesta:     16   -0.117902   -0.060491    0.038007
siesta: ----------------------------------------
siesta:    Tot   -0.024793    0.014605    0.009932

siesta: Stress tensor (static) (eV/Ang**3):
siesta:     0.000380   -0.000148    0.000021
siesta:    -0.000148    0.000601    0.000114
siesta:     0.000021    0.000114   -0.000065

siesta: Constrained stress tensor (static) (eV/Ang**3):
siesta:     0.000380   -0.000148    0.000021
siesta:    -0.000148    0.000601    0.000114
siesta:     0.000021    0.000114   -0.000065

siesta: Cell volume =       2913.189289 Ang**3

siesta: Pressure (static):
siesta:                Solid            Molecule  Units
siesta:          -0.00000333          0.00000011  Ry/Bohr**3
siesta:          -0.00030539          0.00000984  eV/Ang**3
siesta:          -0.48929300          0.01576986  kBar
(Free)E+ p_basis*V_orbitals  =      -64440.811244
(Free)Eharris+ p_basis*V_orbitals  =      -64440.811243

siesta: Electric dipole (a.u.)  =    0.067800    0.017758    0.120650
siesta: Electric dipole (Debye) =    0.172330    0.045137    0.306661

cite: Please see "AuRel.bib" for an exhaustive BiBTeX file.
cite: Please clearly indicate Siesta version in published work: 5.2.1
cite: This calculation has made use of the following articles
cite: which are encouraged to be cited in a published work.
        Primary SIESTA paper
          DOI: www.doi.org/10.1088/0953-8984/14/11/302

Routine            Calls   Time/call    Tot.time        %
siesta                 1    4174.138    4174.138   100.00
Setup                  1       0.892       0.892     0.02
bands                  1       0.000       0.000     0.00
KSV_init               1       0.000       0.000     0.00
IterGeom             101      41.319    4173.246    99.98
geom_init            101       2.002     202.157     4.84
state_init           101       0.016       1.574     0.04
hsparse              101       0.002       0.175     0.00
overlap              101       0.013       1.296     0.03
Setup_H0             101       1.017     102.754     2.46
naefs                202       0.000       0.009     0.00
dnaefs               202       0.000       0.005     0.00
MolMec               202       0.000       0.000     0.00
kinefsm              202       0.012       2.360     0.06
nlefsm               202       0.027       5.481     0.13
DHSCF_Init           101       0.978      98.807     2.37
DHSCF1               101       0.020       2.041     0.05
InitMesh             101       0.020       2.039     0.05
INITMESH             101       0.000       0.000     0.00
DHSCF2               101       0.958      96.766     2.32
REMESH               101       0.066       6.672     0.16
REORD               5519       0.004      24.316     0.58
PHION                101       0.587      59.329     1.42
COMM_BSC            8311       0.003      26.505     0.63
POISON              2103       0.197     413.903     9.92
fft                 4206       0.079     331.848     7.95
setup_H             1901       1.717    3264.586    78.21
DHSCF               2002       1.723    3449.525    82.64
DHSCF3              2002       1.675    3353.718    80.35
rhoofd              2002       0.735    1472.241    35.27
XC                  2002       0.462     924.156    22.14
GXC-CellXC          2002       0.445     890.865    21.34
gridxc@cellXC       2002       0.445     890.853    21.34
vmat                2002       0.111     222.269     5.32
IterSCF             1800       2.096    3771.966    90.37
compute_dm          1800       0.335     602.966    14.45
diagon              1800       0.334     601.185    14.40
r-eigvec            1800       0.082     148.239     3.55
r-buildHS           1800       0.000       0.269     0.01
rdiag               1800       0.082     147.950     3.54
rdiag1              1800       0.004       8.017     0.19
rdiag2              1800       0.009      17.049     0.41
rdiag3              1800       0.066     118.719     2.84
rdiag4              1800       0.002       3.874     0.09
r-buildD            1800       0.250     450.103    10.78
MIXER               1699       0.000       0.517     0.01
PostSCF              101       1.971     199.044     4.77
FINAL_HF             101       1.971     199.042     4.77
DHSCF4               101       0.948      95.790     2.29
dfscf                101       0.814      82.184     1.97
overfsm              101       0.011       1.074     0.03
writeHSX             101       0.001       0.058     0.00
state_analysis       101       0.000       0.016     0.00
siesta_move          101       0.000       0.029     0.00
Analysis               1       0.000       0.000     0.00
optical                1       0.000       0.000     0.00

>> End of run:   4-JUN-2025  16:44:32
Job completed
Job completed